\* Problem: uiwn_2_md *\

Minimize multi-objectives
OBJ1: Priority=2 Weight=1 AbsTol=0.0 RelTol=0.0
+ 0.5 x_or(1,2,1)
+ 0.5 x_or(1,2,2)
+ 0.5 x_or(1,2,3)
+ 0.5 x_or(1,5,1)
+ 0.5 x_or(1,5,2)
+ 0.5 x_or(1,5,3)
+ 0.5 x_or(1,6,1)
+ 0.5 x_or(1,6,2)
+ 0.5 x_or(1,6,3)
+ 0.5 x_or(1,7,1)
+ 0.5 x_or(1,7,2)
+ 0.5 x_or(1,7,3)
+ 0.5 x_or(1,9,1)
+ 0.5 x_or(1,9,2)
+ 0.5 x_or(1,9,3)
+ 0.5 x_or(1,11,1)
+ 0.5 x_or(1,11,2)
+ 0.5 x_or(1,11,3)
+ 0.5 x_or(2,1,1)
+ 0.5 x_or(2,1,2)
+ 0.5 x_or(2,1,3)
+ 0.5 x_or(2,3,1)
+ 0.5 x_or(2,3,2)
+ 0.5 x_or(2,3,3)
+ 0.5 x_or(2,5,1)
+ 0.5 x_or(2,5,2)
+ 0.5 x_or(2,5,3)
+ 0.5 x_or(2,8,1)
+ 0.5 x_or(2,8,2)
+ 0.5 x_or(2,8,3)
+ 0.5 x_or(3,2,1)
+ 0.5 x_or(3,2,2)
+ 0.5 x_or(3,2,3)
+ 0.5 x_or(3,5,1)
+ 0.5 x_or(3,5,2)
+ 0.5 x_or(3,5,3)
+ 0.5 x_or(3,6,1)
+ 0.5 x_or(3,6,2)
+ 0.5 x_or(3,6,3)
+ 0.5 x_or(3,7,1)
+ 0.5 x_or(3,7,2)
+ 0.5 x_or(3,7,3)
+ 0.5 x_or(3,8,1)
+ 0.5 x_or(3,8,2)
+ 0.5 x_or(3,8,3)
+ 0.5 x_or(4,6,1)
+ 0.5 x_or(4,6,2)
+ 0.5 x_or(4,6,3)
+ 0.5 x_or(4,7,1)
+ 0.5 x_or(4,7,2)
+ 0.5 x_or(4,7,3)
+ 0.5 x_or(4,8,1)
+ 0.5 x_or(4,8,2)
+ 0.5 x_or(4,8,3)
+ 0.5 x_or(4,9,1)
+ 0.5 x_or(4,9,2)
+ 0.5 x_or(4,9,3)
+ 0.5 x_or(4,10,1)
+ 0.5 x_or(4,10,2)
+ 0.5 x_or(4,10,3)
+ 0.5 x_or(5,1,1)
+ 0.5 x_or(5,1,2)
+ 0.5 x_or(5,1,3)
+ 0.5 x_or(5,2,1)
+ 0.5 x_or(5,2,2)
+ 0.5 x_or(5,2,3)
+ 0.5 x_or(5,3,1)
+ 0.5 x_or(5,3,2)
+ 0.5 x_or(5,3,3)
+ 0.5 x_or(5,6,1)
+ 0.5 x_or(5,6,2)
+ 0.5 x_or(5,6,3)
+ 0.5 x_or(5,11,1)
+ 0.5 x_or(5,11,2)
+ 0.5 x_or(5,11,3)
+ 0.5 x_or(6,1,1)
+ 0.5 x_or(6,1,2)
+ 0.5 x_or(6,1,3)
+ 0.5 x_or(6,3,1)
+ 0.5 x_or(6,3,2)
+ 0.5 x_or(6,3,3)
+ 0.5 x_or(6,4,1)
+ 0.5 x_or(6,4,2)
+ 0.5 x_or(6,4,3)
+ 0.5 x_or(6,5,1)
+ 0.5 x_or(6,5,2)
+ 0.5 x_or(6,5,3)
+ 0.5 x_or(6,9,1)
+ 0.5 x_or(6,9,2)
+ 0.5 x_or(6,9,3)
+ 0.5 x_or(7,1,1)
+ 0.5 x_or(7,1,2)
+ 0.5 x_or(7,1,3)
+ 0.5 x_or(7,3,1)
+ 0.5 x_or(7,3,2)
+ 0.5 x_or(7,3,3)
+ 0.5 x_or(7,4,1)
+ 0.5 x_or(7,4,2)
+ 0.5 x_or(7,4,3)
+ 0.5 x_or(7,8,1)
+ 0.5 x_or(7,8,2)
+ 0.5 x_or(7,8,3)
+ 0.5 x_or(7,10,1)
+ 0.5 x_or(7,10,2)
+ 0.5 x_or(7,10,3)
+ 0.5 x_or(8,2,1)
+ 0.5 x_or(8,2,2)
+ 0.5 x_or(8,2,3)
+ 0.5 x_or(8,3,1)
+ 0.5 x_or(8,3,2)
+ 0.5 x_or(8,3,3)
+ 0.5 x_or(8,4,1)
+ 0.5 x_or(8,4,2)
+ 0.5 x_or(8,4,3)
+ 0.5 x_or(8,7,1)
+ 0.5 x_or(8,7,2)
+ 0.5 x_or(8,7,3)
+ 0.5 x_or(9,1,1)
+ 0.5 x_or(9,1,2)
+ 0.5 x_or(9,1,3)
+ 0.5 x_or(9,4,1)
+ 0.5 x_or(9,4,2)
+ 0.5 x_or(9,4,3)
+ 0.5 x_or(9,6,1)
+ 0.5 x_or(9,6,2)
+ 0.5 x_or(9,6,3)
+ 0.5 x_or(9,10,1)
+ 0.5 x_or(9,10,2)
+ 0.5 x_or(9,10,3)
+ 0.5 x_or(9,11,1)
+ 0.5 x_or(9,11,2)
+ 0.5 x_or(9,11,3)
+ 0.5 x_or(10,4,1)
+ 0.5 x_or(10,4,2)
+ 0.5 x_or(10,4,3)
+ 0.5 x_or(10,7,1)
+ 0.5 x_or(10,7,2)
+ 0.5 x_or(10,7,3)
+ 0.5 x_or(10,9,1)
+ 0.5 x_or(10,9,2)
+ 0.5 x_or(10,9,3)
+ 0.5 x_or(10,11,1)
+ 0.5 x_or(10,11,2)
+ 0.5 x_or(10,11,3)
+ 0.5 x_or(11,1,1)
+ 0.5 x_or(11,1,2)
+ 0.5 x_or(11,1,3)
+ 0.5 x_or(11,5,1)
+ 0.5 x_or(11,5,2)
+ 0.5 x_or(11,5,3)
+ 0.5 x_or(11,9,1)
+ 0.5 x_or(11,9,2)
+ 0.5 x_or(11,9,3)
+ 0.5 x_or(11,10,1)
+ 0.5 x_or(11,10,2)
+ 0.5 x_or(11,10,3)
OBJ2: Priority=1 Weight=1 AbsTol=0.0 RelTol=0.0
+ Lmax

Subject To
 or_constraint1(1,2,1): - x(1,2,1) + x_or(1,2,1) >= -0
 or_constraint1(1,2,2): - x(1,2,2) + x_or(1,2,2) >= -0
 or_constraint1(1,2,3): - x(1,2,3) + x_or(1,2,3) >= -0
 or_constraint1(1,5,1): - x(1,5,1) + x_or(1,5,1) >= -0
 or_constraint1(1,5,2): - x(1,5,2) + x_or(1,5,2) >= -0
 or_constraint1(1,5,3): - x(1,5,3) + x_or(1,5,3) >= -0
 or_constraint1(1,6,1): - x(1,6,1) + x_or(1,6,1) >= -0
 or_constraint1(1,6,2): - x(1,6,2) + x_or(1,6,2) >= -0
 or_constraint1(1,6,3): - x(1,6,3) + x_or(1,6,3) >= -0
 or_constraint1(1,7,1): - x(1,7,1) + x_or(1,7,1) >= -0
 or_constraint1(1,7,2): - x(1,7,2) + x_or(1,7,2) >= -0
 or_constraint1(1,7,3): - x(1,7,3) + x_or(1,7,3) >= -0
 or_constraint1(1,9,1): - x(1,9,1) + x_or(1,9,1) >= -0
 or_constraint1(1,9,2): - x(1,9,2) + x_or(1,9,2) >= -0
 or_constraint1(1,9,3): - x(1,9,3) + x_or(1,9,3) >= -0
 or_constraint1(1,11,1): - x(1,11,1) + x_or(1,11,1) >= -0
 or_constraint1(1,11,2): - x(1,11,2) + x_or(1,11,2) >= -0
 or_constraint1(1,11,3): - x(1,11,3) + x_or(1,11,3) >= -0
 or_constraint1(2,1,1): - x(2,1,1) + x_or(2,1,1) >= -0
 or_constraint1(2,1,2): - x(2,1,2) + x_or(2,1,2) >= -0
 or_constraint1(2,1,3): - x(2,1,3) + x_or(2,1,3) >= -0
 or_constraint1(2,3,1): - x(2,3,1) + x_or(2,3,1) >= -0
 or_constraint1(2,3,2): - x(2,3,2) + x_or(2,3,2) >= -0
 or_constraint1(2,3,3): - x(2,3,3) + x_or(2,3,3) >= -0
 or_constraint1(2,5,1): - x(2,5,1) + x_or(2,5,1) >= -0
 or_constraint1(2,5,2): - x(2,5,2) + x_or(2,5,2) >= -0
 or_constraint1(2,5,3): - x(2,5,3) + x_or(2,5,3) >= -0
 or_constraint1(2,8,1): - x(2,8,1) + x_or(2,8,1) >= -0
 or_constraint1(2,8,2): - x(2,8,2) + x_or(2,8,2) >= -0
 or_constraint1(2,8,3): - x(2,8,3) + x_or(2,8,3) >= -0
 or_constraint1(3,2,1): - x(3,2,1) + x_or(3,2,1) >= -0
 or_constraint1(3,2,2): - x(3,2,2) + x_or(3,2,2) >= -0
 or_constraint1(3,2,3): - x(3,2,3) + x_or(3,2,3) >= -0
 or_constraint1(3,5,1): - x(3,5,1) + x_or(3,5,1) >= -0
 or_constraint1(3,5,2): - x(3,5,2) + x_or(3,5,2) >= -0
 or_constraint1(3,5,3): - x(3,5,3) + x_or(3,5,3) >= -0
 or_constraint1(3,6,1): - x(3,6,1) + x_or(3,6,1) >= -0
 or_constraint1(3,6,2): - x(3,6,2) + x_or(3,6,2) >= -0
 or_constraint1(3,6,3): - x(3,6,3) + x_or(3,6,3) >= -0
 or_constraint1(3,7,1): - x(3,7,1) + x_or(3,7,1) >= -0
 or_constraint1(3,7,2): - x(3,7,2) + x_or(3,7,2) >= -0
 or_constraint1(3,7,3): - x(3,7,3) + x_or(3,7,3) >= -0
 or_constraint1(3,8,1): - x(3,8,1) + x_or(3,8,1) >= -0
 or_constraint1(3,8,2): - x(3,8,2) + x_or(3,8,2) >= -0
 or_constraint1(3,8,3): - x(3,8,3) + x_or(3,8,3) >= -0
 or_constraint1(4,6,1): - x(4,6,1) + x_or(4,6,1) >= -0
 or_constraint1(4,6,2): - x(4,6,2) + x_or(4,6,2) >= -0
 or_constraint1(4,6,3): - x(4,6,3) + x_or(4,6,3) >= -0
 or_constraint1(4,7,1): - x(4,7,1) + x_or(4,7,1) >= -0
 or_constraint1(4,7,2): - x(4,7,2) + x_or(4,7,2) >= -0
 or_constraint1(4,7,3): - x(4,7,3) + x_or(4,7,3) >= -0
 or_constraint1(4,8,1): - x(4,8,1) + x_or(4,8,1) >= -0
 or_constraint1(4,8,2): - x(4,8,2) + x_or(4,8,2) >= -0
 or_constraint1(4,8,3): - x(4,8,3) + x_or(4,8,3) >= -0
 or_constraint1(4,9,1): - x(4,9,1) + x_or(4,9,1) >= -0
 or_constraint1(4,9,2): - x(4,9,2) + x_or(4,9,2) >= -0
 or_constraint1(4,9,3): - x(4,9,3) + x_or(4,9,3) >= -0
 or_constraint1(4,10,1): - x(4,10,1) + x_or(4,10,1) >= -0
 or_constraint1(4,10,2): - x(4,10,2) + x_or(4,10,2) >= -0
 or_constraint1(4,10,3): - x(4,10,3) + x_or(4,10,3) >= -0
 or_constraint1(5,1,1): - x(5,1,1) + x_or(5,1,1) >= -0
 or_constraint1(5,1,2): - x(5,1,2) + x_or(5,1,2) >= -0
 or_constraint1(5,1,3): - x(5,1,3) + x_or(5,1,3) >= -0
 or_constraint1(5,2,1): - x(5,2,1) + x_or(5,2,1) >= -0
 or_constraint1(5,2,2): - x(5,2,2) + x_or(5,2,2) >= -0
 or_constraint1(5,2,3): - x(5,2,3) + x_or(5,2,3) >= -0
 or_constraint1(5,3,1): - x(5,3,1) + x_or(5,3,1) >= -0
 or_constraint1(5,3,2): - x(5,3,2) + x_or(5,3,2) >= -0
 or_constraint1(5,3,3): - x(5,3,3) + x_or(5,3,3) >= -0
 or_constraint1(5,6,1): - x(5,6,1) + x_or(5,6,1) >= -0
 or_constraint1(5,6,2): - x(5,6,2) + x_or(5,6,2) >= -0
 or_constraint1(5,6,3): - x(5,6,3) + x_or(5,6,3) >= -0
 or_constraint1(5,11,1): - x(5,11,1) + x_or(5,11,1) >= -0
 or_constraint1(5,11,2): - x(5,11,2) + x_or(5,11,2) >= -0
 or_constraint1(5,11,3): - x(5,11,3) + x_or(5,11,3) >= -0
 or_constraint1(6,1,1): - x(6,1,1) + x_or(6,1,1) >= -0
 or_constraint1(6,1,2): - x(6,1,2) + x_or(6,1,2) >= -0
 or_constraint1(6,1,3): - x(6,1,3) + x_or(6,1,3) >= -0
 or_constraint1(6,3,1): - x(6,3,1) + x_or(6,3,1) >= -0
 or_constraint1(6,3,2): - x(6,3,2) + x_or(6,3,2) >= -0
 or_constraint1(6,3,3): - x(6,3,3) + x_or(6,3,3) >= -0
 or_constraint1(6,4,1): - x(6,4,1) + x_or(6,4,1) >= -0
 or_constraint1(6,4,2): - x(6,4,2) + x_or(6,4,2) >= -0
 or_constraint1(6,4,3): - x(6,4,3) + x_or(6,4,3) >= -0
 or_constraint1(6,5,1): - x(6,5,1) + x_or(6,5,1) >= -0
 or_constraint1(6,5,2): - x(6,5,2) + x_or(6,5,2) >= -0
 or_constraint1(6,5,3): - x(6,5,3) + x_or(6,5,3) >= -0
 or_constraint1(6,9,1): - x(6,9,1) + x_or(6,9,1) >= -0
 or_constraint1(6,9,2): - x(6,9,2) + x_or(6,9,2) >= -0
 or_constraint1(6,9,3): - x(6,9,3) + x_or(6,9,3) >= -0
 or_constraint1(7,1,1): - x(7,1,1) + x_or(7,1,1) >= -0
 or_constraint1(7,1,2): - x(7,1,2) + x_or(7,1,2) >= -0
 or_constraint1(7,1,3): - x(7,1,3) + x_or(7,1,3) >= -0
 or_constraint1(7,3,1): - x(7,3,1) + x_or(7,3,1) >= -0
 or_constraint1(7,3,2): - x(7,3,2) + x_or(7,3,2) >= -0
 or_constraint1(7,3,3): - x(7,3,3) + x_or(7,3,3) >= -0
 or_constraint1(7,4,1): - x(7,4,1) + x_or(7,4,1) >= -0
 or_constraint1(7,4,2): - x(7,4,2) + x_or(7,4,2) >= -0
 or_constraint1(7,4,3): - x(7,4,3) + x_or(7,4,3) >= -0
 or_constraint1(7,8,1): - x(7,8,1) + x_or(7,8,1) >= -0
 or_constraint1(7,8,2): - x(7,8,2) + x_or(7,8,2) >= -0
 or_constraint1(7,8,3): - x(7,8,3) + x_or(7,8,3) >= -0
 or_constraint1(7,10,1): - x(7,10,1) + x_or(7,10,1) >= -0
 or_constraint1(7,10,2): - x(7,10,2) + x_or(7,10,2) >= -0
 or_constraint1(7,10,3): - x(7,10,3) + x_or(7,10,3) >= -0
 or_constraint1(8,2,1): - x(8,2,1) + x_or(8,2,1) >= -0
 or_constraint1(8,2,2): - x(8,2,2) + x_or(8,2,2) >= -0
 or_constraint1(8,2,3): - x(8,2,3) + x_or(8,2,3) >= -0
 or_constraint1(8,3,1): - x(8,3,1) + x_or(8,3,1) >= -0
 or_constraint1(8,3,2): - x(8,3,2) + x_or(8,3,2) >= -0
 or_constraint1(8,3,3): - x(8,3,3) + x_or(8,3,3) >= -0
 or_constraint1(8,4,1): - x(8,4,1) + x_or(8,4,1) >= -0
 or_constraint1(8,4,2): - x(8,4,2) + x_or(8,4,2) >= -0
 or_constraint1(8,4,3): - x(8,4,3) + x_or(8,4,3) >= -0
 or_constraint1(8,7,1): - x(8,7,1) + x_or(8,7,1) >= -0
 or_constraint1(8,7,2): - x(8,7,2) + x_or(8,7,2) >= -0
 or_constraint1(8,7,3): - x(8,7,3) + x_or(8,7,3) >= -0
 or_constraint1(9,1,1): - x(9,1,1) + x_or(9,1,1) >= -0
 or_constraint1(9,1,2): - x(9,1,2) + x_or(9,1,2) >= -0
 or_constraint1(9,1,3): - x(9,1,3) + x_or(9,1,3) >= -0
 or_constraint1(9,4,1): - x(9,4,1) + x_or(9,4,1) >= -0
 or_constraint1(9,4,2): - x(9,4,2) + x_or(9,4,2) >= -0
 or_constraint1(9,4,3): - x(9,4,3) + x_or(9,4,3) >= -0
 or_constraint1(9,6,1): - x(9,6,1) + x_or(9,6,1) >= -0
 or_constraint1(9,6,2): - x(9,6,2) + x_or(9,6,2) >= -0
 or_constraint1(9,6,3): - x(9,6,3) + x_or(9,6,3) >= -0
 or_constraint1(9,10,1): - x(9,10,1) + x_or(9,10,1) >= -0
 or_constraint1(9,10,2): - x(9,10,2) + x_or(9,10,2) >= -0
 or_constraint1(9,10,3): - x(9,10,3) + x_or(9,10,3) >= -0
 or_constraint1(9,11,1): - x(9,11,1) + x_or(9,11,1) >= -0
 or_constraint1(9,11,2): - x(9,11,2) + x_or(9,11,2) >= -0
 or_constraint1(9,11,3): - x(9,11,3) + x_or(9,11,3) >= -0
 or_constraint1(10,4,1): - x(10,4,1) + x_or(10,4,1) >= -0
 or_constraint1(10,4,2): - x(10,4,2) + x_or(10,4,2) >= -0
 or_constraint1(10,4,3): - x(10,4,3) + x_or(10,4,3) >= -0
 or_constraint1(10,7,1): - x(10,7,1) + x_or(10,7,1) >= -0
 or_constraint1(10,7,2): - x(10,7,2) + x_or(10,7,2) >= -0
 or_constraint1(10,7,3): - x(10,7,3) + x_or(10,7,3) >= -0
 or_constraint1(10,9,1): - x(10,9,1) + x_or(10,9,1) >= -0
 or_constraint1(10,9,2): - x(10,9,2) + x_or(10,9,2) >= -0
 or_constraint1(10,9,3): - x(10,9,3) + x_or(10,9,3) >= -0
 or_constraint1(10,11,1): - x(10,11,1) + x_or(10,11,1) >= -0
 or_constraint1(10,11,2): - x(10,11,2) + x_or(10,11,2) >= -0
 or_constraint1(10,11,3): - x(10,11,3) + x_or(10,11,3) >= -0
 or_constraint1(11,1,1): - x(11,1,1) + x_or(11,1,1) >= -0
 or_constraint1(11,1,2): - x(11,1,2) + x_or(11,1,2) >= -0
 or_constraint1(11,1,3): - x(11,1,3) + x_or(11,1,3) >= -0
 or_constraint1(11,5,1): - x(11,5,1) + x_or(11,5,1) >= -0
 or_constraint1(11,5,2): - x(11,5,2) + x_or(11,5,2) >= -0
 or_constraint1(11,5,3): - x(11,5,3) + x_or(11,5,3) >= -0
 or_constraint1(11,9,1): - x(11,9,1) + x_or(11,9,1) >= -0
 or_constraint1(11,9,2): - x(11,9,2) + x_or(11,9,2) >= -0
 or_constraint1(11,9,3): - x(11,9,3) + x_or(11,9,3) >= -0
 or_constraint1(11,10,1): - x(11,10,1) + x_or(11,10,1) >= -0
 or_constraint1(11,10,2): - x(11,10,2) + x_or(11,10,2) >= -0
 or_constraint1(11,10,3): - x(11,10,3) + x_or(11,10,3) >= -0
 or_constraint2(1,2,1): - x(2,1,1) + x_or(1,2,1) >= -0
 or_constraint2(1,2,2): - x(2,1,2) + x_or(1,2,2) >= -0
 or_constraint2(1,2,3): - x(2,1,3) + x_or(1,2,3) >= -0
 or_constraint2(1,5,1): - x(5,1,1) + x_or(1,5,1) >= -0
 or_constraint2(1,5,2): - x(5,1,2) + x_or(1,5,2) >= -0
 or_constraint2(1,5,3): - x(5,1,3) + x_or(1,5,3) >= -0
 or_constraint2(1,6,1): - x(6,1,1) + x_or(1,6,1) >= -0
 or_constraint2(1,6,2): - x(6,1,2) + x_or(1,6,2) >= -0
 or_constraint2(1,6,3): - x(6,1,3) + x_or(1,6,3) >= -0
 or_constraint2(1,7,1): - x(7,1,1) + x_or(1,7,1) >= -0
 or_constraint2(1,7,2): - x(7,1,2) + x_or(1,7,2) >= -0
 or_constraint2(1,7,3): - x(7,1,3) + x_or(1,7,3) >= -0
 or_constraint2(1,9,1): - x(9,1,1) + x_or(1,9,1) >= -0
 or_constraint2(1,9,2): - x(9,1,2) + x_or(1,9,2) >= -0
 or_constraint2(1,9,3): - x(9,1,3) + x_or(1,9,3) >= -0
 or_constraint2(1,11,1): - x(11,1,1) + x_or(1,11,1) >= -0
 or_constraint2(1,11,2): - x(11,1,2) + x_or(1,11,2) >= -0
 or_constraint2(1,11,3): - x(11,1,3) + x_or(1,11,3) >= -0
 or_constraint2(2,1,1): - x(1,2,1) + x_or(2,1,1) >= -0
 or_constraint2(2,1,2): - x(1,2,2) + x_or(2,1,2) >= -0
 or_constraint2(2,1,3): - x(1,2,3) + x_or(2,1,3) >= -0
 or_constraint2(2,3,1): - x(3,2,1) + x_or(2,3,1) >= -0
 or_constraint2(2,3,2): - x(3,2,2) + x_or(2,3,2) >= -0
 or_constraint2(2,3,3): - x(3,2,3) + x_or(2,3,3) >= -0
 or_constraint2(2,5,1): - x(5,2,1) + x_or(2,5,1) >= -0
 or_constraint2(2,5,2): - x(5,2,2) + x_or(2,5,2) >= -0
 or_constraint2(2,5,3): - x(5,2,3) + x_or(2,5,3) >= -0
 or_constraint2(2,8,1): - x(8,2,1) + x_or(2,8,1) >= -0
 or_constraint2(2,8,2): - x(8,2,2) + x_or(2,8,2) >= -0
 or_constraint2(2,8,3): - x(8,2,3) + x_or(2,8,3) >= -0
 or_constraint2(3,2,1): - x(2,3,1) + x_or(3,2,1) >= -0
 or_constraint2(3,2,2): - x(2,3,2) + x_or(3,2,2) >= -0
 or_constraint2(3,2,3): - x(2,3,3) + x_or(3,2,3) >= -0
 or_constraint2(3,5,1): - x(5,3,1) + x_or(3,5,1) >= -0
 or_constraint2(3,5,2): - x(5,3,2) + x_or(3,5,2) >= -0
 or_constraint2(3,5,3): - x(5,3,3) + x_or(3,5,3) >= -0
 or_constraint2(3,6,1): - x(6,3,1) + x_or(3,6,1) >= -0
 or_constraint2(3,6,2): - x(6,3,2) + x_or(3,6,2) >= -0
 or_constraint2(3,6,3): - x(6,3,3) + x_or(3,6,3) >= -0
 or_constraint2(3,7,1): - x(7,3,1) + x_or(3,7,1) >= -0
 or_constraint2(3,7,2): - x(7,3,2) + x_or(3,7,2) >= -0
 or_constraint2(3,7,3): - x(7,3,3) + x_or(3,7,3) >= -0
 or_constraint2(3,8,1): - x(8,3,1) + x_or(3,8,1) >= -0
 or_constraint2(3,8,2): - x(8,3,2) + x_or(3,8,2) >= -0
 or_constraint2(3,8,3): - x(8,3,3) + x_or(3,8,3) >= -0
 or_constraint2(4,6,1): - x(6,4,1) + x_or(4,6,1) >= -0
 or_constraint2(4,6,2): - x(6,4,2) + x_or(4,6,2) >= -0
 or_constraint2(4,6,3): - x(6,4,3) + x_or(4,6,3) >= -0
 or_constraint2(4,7,1): - x(7,4,1) + x_or(4,7,1) >= -0
 or_constraint2(4,7,2): - x(7,4,2) + x_or(4,7,2) >= -0
 or_constraint2(4,7,3): - x(7,4,3) + x_or(4,7,3) >= -0
 or_constraint2(4,8,1): - x(8,4,1) + x_or(4,8,1) >= -0
 or_constraint2(4,8,2): - x(8,4,2) + x_or(4,8,2) >= -0
 or_constraint2(4,8,3): - x(8,4,3) + x_or(4,8,3) >= -0
 or_constraint2(4,9,1): - x(9,4,1) + x_or(4,9,1) >= -0
 or_constraint2(4,9,2): - x(9,4,2) + x_or(4,9,2) >= -0
 or_constraint2(4,9,3): - x(9,4,3) + x_or(4,9,3) >= -0
 or_constraint2(4,10,1): - x(10,4,1) + x_or(4,10,1) >= -0
 or_constraint2(4,10,2): - x(10,4,2) + x_or(4,10,2) >= -0
 or_constraint2(4,10,3): - x(10,4,3) + x_or(4,10,3) >= -0
 or_constraint2(5,1,1): - x(1,5,1) + x_or(5,1,1) >= -0
 or_constraint2(5,1,2): - x(1,5,2) + x_or(5,1,2) >= -0
 or_constraint2(5,1,3): - x(1,5,3) + x_or(5,1,3) >= -0
 or_constraint2(5,2,1): - x(2,5,1) + x_or(5,2,1) >= -0
 or_constraint2(5,2,2): - x(2,5,2) + x_or(5,2,2) >= -0
 or_constraint2(5,2,3): - x(2,5,3) + x_or(5,2,3) >= -0
 or_constraint2(5,3,1): - x(3,5,1) + x_or(5,3,1) >= -0
 or_constraint2(5,3,2): - x(3,5,2) + x_or(5,3,2) >= -0
 or_constraint2(5,3,3): - x(3,5,3) + x_or(5,3,3) >= -0
 or_constraint2(5,6,1): - x(6,5,1) + x_or(5,6,1) >= -0
 or_constraint2(5,6,2): - x(6,5,2) + x_or(5,6,2) >= -0
 or_constraint2(5,6,3): - x(6,5,3) + x_or(5,6,3) >= -0
 or_constraint2(5,11,1): - x(11,5,1) + x_or(5,11,1) >= -0
 or_constraint2(5,11,2): - x(11,5,2) + x_or(5,11,2) >= -0
 or_constraint2(5,11,3): - x(11,5,3) + x_or(5,11,3) >= -0
 or_constraint2(6,1,1): - x(1,6,1) + x_or(6,1,1) >= -0
 or_constraint2(6,1,2): - x(1,6,2) + x_or(6,1,2) >= -0
 or_constraint2(6,1,3): - x(1,6,3) + x_or(6,1,3) >= -0
 or_constraint2(6,3,1): - x(3,6,1) + x_or(6,3,1) >= -0
 or_constraint2(6,3,2): - x(3,6,2) + x_or(6,3,2) >= -0
 or_constraint2(6,3,3): - x(3,6,3) + x_or(6,3,3) >= -0
 or_constraint2(6,4,1): - x(4,6,1) + x_or(6,4,1) >= -0
 or_constraint2(6,4,2): - x(4,6,2) + x_or(6,4,2) >= -0
 or_constraint2(6,4,3): - x(4,6,3) + x_or(6,4,3) >= -0
 or_constraint2(6,5,1): - x(5,6,1) + x_or(6,5,1) >= -0
 or_constraint2(6,5,2): - x(5,6,2) + x_or(6,5,2) >= -0
 or_constraint2(6,5,3): - x(5,6,3) + x_or(6,5,3) >= -0
 or_constraint2(6,9,1): - x(9,6,1) + x_or(6,9,1) >= -0
 or_constraint2(6,9,2): - x(9,6,2) + x_or(6,9,2) >= -0
 or_constraint2(6,9,3): - x(9,6,3) + x_or(6,9,3) >= -0
 or_constraint2(7,1,1): - x(1,7,1) + x_or(7,1,1) >= -0
 or_constraint2(7,1,2): - x(1,7,2) + x_or(7,1,2) >= -0
 or_constraint2(7,1,3): - x(1,7,3) + x_or(7,1,3) >= -0
 or_constraint2(7,3,1): - x(3,7,1) + x_or(7,3,1) >= -0
 or_constraint2(7,3,2): - x(3,7,2) + x_or(7,3,2) >= -0
 or_constraint2(7,3,3): - x(3,7,3) + x_or(7,3,3) >= -0
 or_constraint2(7,4,1): - x(4,7,1) + x_or(7,4,1) >= -0
 or_constraint2(7,4,2): - x(4,7,2) + x_or(7,4,2) >= -0
 or_constraint2(7,4,3): - x(4,7,3) + x_or(7,4,3) >= -0
 or_constraint2(7,8,1): - x(8,7,1) + x_or(7,8,1) >= -0
 or_constraint2(7,8,2): - x(8,7,2) + x_or(7,8,2) >= -0
 or_constraint2(7,8,3): - x(8,7,3) + x_or(7,8,3) >= -0
 or_constraint2(7,10,1): - x(10,7,1) + x_or(7,10,1) >= -0
 or_constraint2(7,10,2): - x(10,7,2) + x_or(7,10,2) >= -0
 or_constraint2(7,10,3): - x(10,7,3) + x_or(7,10,3) >= -0
 or_constraint2(8,2,1): - x(2,8,1) + x_or(8,2,1) >= -0
 or_constraint2(8,2,2): - x(2,8,2) + x_or(8,2,2) >= -0
 or_constraint2(8,2,3): - x(2,8,3) + x_or(8,2,3) >= -0
 or_constraint2(8,3,1): - x(3,8,1) + x_or(8,3,1) >= -0
 or_constraint2(8,3,2): - x(3,8,2) + x_or(8,3,2) >= -0
 or_constraint2(8,3,3): - x(3,8,3) + x_or(8,3,3) >= -0
 or_constraint2(8,4,1): - x(4,8,1) + x_or(8,4,1) >= -0
 or_constraint2(8,4,2): - x(4,8,2) + x_or(8,4,2) >= -0
 or_constraint2(8,4,3): - x(4,8,3) + x_or(8,4,3) >= -0
 or_constraint2(8,7,1): - x(7,8,1) + x_or(8,7,1) >= -0
 or_constraint2(8,7,2): - x(7,8,2) + x_or(8,7,2) >= -0
 or_constraint2(8,7,3): - x(7,8,3) + x_or(8,7,3) >= -0
 or_constraint2(9,1,1): - x(1,9,1) + x_or(9,1,1) >= -0
 or_constraint2(9,1,2): - x(1,9,2) + x_or(9,1,2) >= -0
 or_constraint2(9,1,3): - x(1,9,3) + x_or(9,1,3) >= -0
 or_constraint2(9,4,1): - x(4,9,1) + x_or(9,4,1) >= -0
 or_constraint2(9,4,2): - x(4,9,2) + x_or(9,4,2) >= -0
 or_constraint2(9,4,3): - x(4,9,3) + x_or(9,4,3) >= -0
 or_constraint2(9,6,1): - x(6,9,1) + x_or(9,6,1) >= -0
 or_constraint2(9,6,2): - x(6,9,2) + x_or(9,6,2) >= -0
 or_constraint2(9,6,3): - x(6,9,3) + x_or(9,6,3) >= -0
 or_constraint2(9,10,1): - x(10,9,1) + x_or(9,10,1) >= -0
 or_constraint2(9,10,2): - x(10,9,2) + x_or(9,10,2) >= -0
 or_constraint2(9,10,3): - x(10,9,3) + x_or(9,10,3) >= -0
 or_constraint2(9,11,1): - x(11,9,1) + x_or(9,11,1) >= -0
 or_constraint2(9,11,2): - x(11,9,2) + x_or(9,11,2) >= -0
 or_constraint2(9,11,3): - x(11,9,3) + x_or(9,11,3) >= -0
 or_constraint2(10,4,1): - x(4,10,1) + x_or(10,4,1) >= -0
 or_constraint2(10,4,2): - x(4,10,2) + x_or(10,4,2) >= -0
 or_constraint2(10,4,3): - x(4,10,3) + x_or(10,4,3) >= -0
 or_constraint2(10,7,1): - x(7,10,1) + x_or(10,7,1) >= -0
 or_constraint2(10,7,2): - x(7,10,2) + x_or(10,7,2) >= -0
 or_constraint2(10,7,3): - x(7,10,3) + x_or(10,7,3) >= -0
 or_constraint2(10,9,1): - x(9,10,1) + x_or(10,9,1) >= -0
 or_constraint2(10,9,2): - x(9,10,2) + x_or(10,9,2) >= -0
 or_constraint2(10,9,3): - x(9,10,3) + x_or(10,9,3) >= -0
 or_constraint2(10,11,1): - x(11,10,1) + x_or(10,11,1) >= -0
 or_constraint2(10,11,2): - x(11,10,2) + x_or(10,11,2) >= -0
 or_constraint2(10,11,3): - x(11,10,3) + x_or(10,11,3) >= -0
 or_constraint2(11,1,1): - x(1,11,1) + x_or(11,1,1) >= -0
 or_constraint2(11,1,2): - x(1,11,2) + x_or(11,1,2) >= -0
 or_constraint2(11,1,3): - x(1,11,3) + x_or(11,1,3) >= -0
 or_constraint2(11,5,1): - x(5,11,1) + x_or(11,5,1) >= -0
 or_constraint2(11,5,2): - x(5,11,2) + x_or(11,5,2) >= -0
 or_constraint2(11,5,3): - x(5,11,3) + x_or(11,5,3) >= -0
 or_constraint2(11,9,1): - x(9,11,1) + x_or(11,9,1) >= -0
 or_constraint2(11,9,2): - x(9,11,2) + x_or(11,9,2) >= -0
 or_constraint2(11,9,3): - x(9,11,3) + x_or(11,9,3) >= -0
 or_constraint2(11,10,1): - x(10,11,1) + x_or(11,10,1) >= -0
 or_constraint2(11,10,2): - x(10,11,2) + x_or(11,10,2) >= -0
 or_constraint2(11,10,3): - x(10,11,3) + x_or(11,10,3) >= -0
 or_constraint3(1,2,1): + x_or(1,2,1) <= 1
 or_constraint3(1,2,2): + x_or(1,2,2) <= 1
 or_constraint3(1,2,3): + x_or(1,2,3) <= 1
 or_constraint3(1,5,1): + x_or(1,5,1) <= 1
 or_constraint3(1,5,2): + x_or(1,5,2) <= 1
 or_constraint3(1,5,3): + x_or(1,5,3) <= 1
 or_constraint3(1,6,1): + x_or(1,6,1) <= 1
 or_constraint3(1,6,2): + x_or(1,6,2) <= 1
 or_constraint3(1,6,3): + x_or(1,6,3) <= 1
 or_constraint3(1,7,1): + x_or(1,7,1) <= 1
 or_constraint3(1,7,2): + x_or(1,7,2) <= 1
 or_constraint3(1,7,3): + x_or(1,7,3) <= 1
 or_constraint3(1,9,1): + x_or(1,9,1) <= 1
 or_constraint3(1,9,2): + x_or(1,9,2) <= 1
 or_constraint3(1,9,3): + x_or(1,9,3) <= 1
 or_constraint3(1,11,1): + x_or(1,11,1) <= 1
 or_constraint3(1,11,2): + x_or(1,11,2) <= 1
 or_constraint3(1,11,3): + x_or(1,11,3) <= 1
 or_constraint3(2,1,1): + x_or(2,1,1) <= 1
 or_constraint3(2,1,2): + x_or(2,1,2) <= 1
 or_constraint3(2,1,3): + x_or(2,1,3) <= 1
 or_constraint3(2,3,1): + x_or(2,3,1) <= 1
 or_constraint3(2,3,2): + x_or(2,3,2) <= 1
 or_constraint3(2,3,3): + x_or(2,3,3) <= 1
 or_constraint3(2,5,1): + x_or(2,5,1) <= 1
 or_constraint3(2,5,2): + x_or(2,5,2) <= 1
 or_constraint3(2,5,3): + x_or(2,5,3) <= 1
 or_constraint3(2,8,1): + x_or(2,8,1) <= 1
 or_constraint3(2,8,2): + x_or(2,8,2) <= 1
 or_constraint3(2,8,3): + x_or(2,8,3) <= 1
 or_constraint3(3,2,1): + x_or(3,2,1) <= 1
 or_constraint3(3,2,2): + x_or(3,2,2) <= 1
 or_constraint3(3,2,3): + x_or(3,2,3) <= 1
 or_constraint3(3,5,1): + x_or(3,5,1) <= 1
 or_constraint3(3,5,2): + x_or(3,5,2) <= 1
 or_constraint3(3,5,3): + x_or(3,5,3) <= 1
 or_constraint3(3,6,1): + x_or(3,6,1) <= 1
 or_constraint3(3,6,2): + x_or(3,6,2) <= 1
 or_constraint3(3,6,3): + x_or(3,6,3) <= 1
 or_constraint3(3,7,1): + x_or(3,7,1) <= 1
 or_constraint3(3,7,2): + x_or(3,7,2) <= 1
 or_constraint3(3,7,3): + x_or(3,7,3) <= 1
 or_constraint3(3,8,1): + x_or(3,8,1) <= 1
 or_constraint3(3,8,2): + x_or(3,8,2) <= 1
 or_constraint3(3,8,3): + x_or(3,8,3) <= 1
 or_constraint3(4,6,1): + x_or(4,6,1) <= 1
 or_constraint3(4,6,2): + x_or(4,6,2) <= 1
 or_constraint3(4,6,3): + x_or(4,6,3) <= 1
 or_constraint3(4,7,1): + x_or(4,7,1) <= 1
 or_constraint3(4,7,2): + x_or(4,7,2) <= 1
 or_constraint3(4,7,3): + x_or(4,7,3) <= 1
 or_constraint3(4,8,1): + x_or(4,8,1) <= 1
 or_constraint3(4,8,2): + x_or(4,8,2) <= 1
 or_constraint3(4,8,3): + x_or(4,8,3) <= 1
 or_constraint3(4,9,1): + x_or(4,9,1) <= 1
 or_constraint3(4,9,2): + x_or(4,9,2) <= 1
 or_constraint3(4,9,3): + x_or(4,9,3) <= 1
 or_constraint3(4,10,1): + x_or(4,10,1) <= 1
 or_constraint3(4,10,2): + x_or(4,10,2) <= 1
 or_constraint3(4,10,3): + x_or(4,10,3) <= 1
 or_constraint3(5,1,1): + x_or(5,1,1) <= 1
 or_constraint3(5,1,2): + x_or(5,1,2) <= 1
 or_constraint3(5,1,3): + x_or(5,1,3) <= 1
 or_constraint3(5,2,1): + x_or(5,2,1) <= 1
 or_constraint3(5,2,2): + x_or(5,2,2) <= 1
 or_constraint3(5,2,3): + x_or(5,2,3) <= 1
 or_constraint3(5,3,1): + x_or(5,3,1) <= 1
 or_constraint3(5,3,2): + x_or(5,3,2) <= 1
 or_constraint3(5,3,3): + x_or(5,3,3) <= 1
 or_constraint3(5,6,1): + x_or(5,6,1) <= 1
 or_constraint3(5,6,2): + x_or(5,6,2) <= 1
 or_constraint3(5,6,3): + x_or(5,6,3) <= 1
 or_constraint3(5,11,1): + x_or(5,11,1) <= 1
 or_constraint3(5,11,2): + x_or(5,11,2) <= 1
 or_constraint3(5,11,3): + x_or(5,11,3) <= 1
 or_constraint3(6,1,1): + x_or(6,1,1) <= 1
 or_constraint3(6,1,2): + x_or(6,1,2) <= 1
 or_constraint3(6,1,3): + x_or(6,1,3) <= 1
 or_constraint3(6,3,1): + x_or(6,3,1) <= 1
 or_constraint3(6,3,2): + x_or(6,3,2) <= 1
 or_constraint3(6,3,3): + x_or(6,3,3) <= 1
 or_constraint3(6,4,1): + x_or(6,4,1) <= 1
 or_constraint3(6,4,2): + x_or(6,4,2) <= 1
 or_constraint3(6,4,3): + x_or(6,4,3) <= 1
 or_constraint3(6,5,1): + x_or(6,5,1) <= 1
 or_constraint3(6,5,2): + x_or(6,5,2) <= 1
 or_constraint3(6,5,3): + x_or(6,5,3) <= 1
 or_constraint3(6,9,1): + x_or(6,9,1) <= 1
 or_constraint3(6,9,2): + x_or(6,9,2) <= 1
 or_constraint3(6,9,3): + x_or(6,9,3) <= 1
 or_constraint3(7,1,1): + x_or(7,1,1) <= 1
 or_constraint3(7,1,2): + x_or(7,1,2) <= 1
 or_constraint3(7,1,3): + x_or(7,1,3) <= 1
 or_constraint3(7,3,1): + x_or(7,3,1) <= 1
 or_constraint3(7,3,2): + x_or(7,3,2) <= 1
 or_constraint3(7,3,3): + x_or(7,3,3) <= 1
 or_constraint3(7,4,1): + x_or(7,4,1) <= 1
 or_constraint3(7,4,2): + x_or(7,4,2) <= 1
 or_constraint3(7,4,3): + x_or(7,4,3) <= 1
 or_constraint3(7,8,1): + x_or(7,8,1) <= 1
 or_constraint3(7,8,2): + x_or(7,8,2) <= 1
 or_constraint3(7,8,3): + x_or(7,8,3) <= 1
 or_constraint3(7,10,1): + x_or(7,10,1) <= 1
 or_constraint3(7,10,2): + x_or(7,10,2) <= 1
 or_constraint3(7,10,3): + x_or(7,10,3) <= 1
 or_constraint3(8,2,1): + x_or(8,2,1) <= 1
 or_constraint3(8,2,2): + x_or(8,2,2) <= 1
 or_constraint3(8,2,3): + x_or(8,2,3) <= 1
 or_constraint3(8,3,1): + x_or(8,3,1) <= 1
 or_constraint3(8,3,2): + x_or(8,3,2) <= 1
 or_constraint3(8,3,3): + x_or(8,3,3) <= 1
 or_constraint3(8,4,1): + x_or(8,4,1) <= 1
 or_constraint3(8,4,2): + x_or(8,4,2) <= 1
 or_constraint3(8,4,3): + x_or(8,4,3) <= 1
 or_constraint3(8,7,1): + x_or(8,7,1) <= 1
 or_constraint3(8,7,2): + x_or(8,7,2) <= 1
 or_constraint3(8,7,3): + x_or(8,7,3) <= 1
 or_constraint3(9,1,1): + x_or(9,1,1) <= 1
 or_constraint3(9,1,2): + x_or(9,1,2) <= 1
 or_constraint3(9,1,3): + x_or(9,1,3) <= 1
 or_constraint3(9,4,1): + x_or(9,4,1) <= 1
 or_constraint3(9,4,2): + x_or(9,4,2) <= 1
 or_constraint3(9,4,3): + x_or(9,4,3) <= 1
 or_constraint3(9,6,1): + x_or(9,6,1) <= 1
 or_constraint3(9,6,2): + x_or(9,6,2) <= 1
 or_constraint3(9,6,3): + x_or(9,6,3) <= 1
 or_constraint3(9,10,1): + x_or(9,10,1) <= 1
 or_constraint3(9,10,2): + x_or(9,10,2) <= 1
 or_constraint3(9,10,3): + x_or(9,10,3) <= 1
 or_constraint3(9,11,1): + x_or(9,11,1) <= 1
 or_constraint3(9,11,2): + x_or(9,11,2) <= 1
 or_constraint3(9,11,3): + x_or(9,11,3) <= 1
 or_constraint3(10,4,1): + x_or(10,4,1) <= 1
 or_constraint3(10,4,2): + x_or(10,4,2) <= 1
 or_constraint3(10,4,3): + x_or(10,4,3) <= 1
 or_constraint3(10,7,1): + x_or(10,7,1) <= 1
 or_constraint3(10,7,2): + x_or(10,7,2) <= 1
 or_constraint3(10,7,3): + x_or(10,7,3) <= 1
 or_constraint3(10,9,1): + x_or(10,9,1) <= 1
 or_constraint3(10,9,2): + x_or(10,9,2) <= 1
 or_constraint3(10,9,3): + x_or(10,9,3) <= 1
 or_constraint3(10,11,1): + x_or(10,11,1) <= 1
 or_constraint3(10,11,2): + x_or(10,11,2) <= 1
 or_constraint3(10,11,3): + x_or(10,11,3) <= 1
 or_constraint3(11,1,1): + x_or(11,1,1) <= 1
 or_constraint3(11,1,2): + x_or(11,1,2) <= 1
 or_constraint3(11,1,3): + x_or(11,1,3) <= 1
 or_constraint3(11,5,1): + x_or(11,5,1) <= 1
 or_constraint3(11,5,2): + x_or(11,5,2) <= 1
 or_constraint3(11,5,3): + x_or(11,5,3) <= 1
 or_constraint3(11,9,1): + x_or(11,9,1) <= 1
 or_constraint3(11,9,2): + x_or(11,9,2) <= 1
 or_constraint3(11,9,3): + x_or(11,9,3) <= 1
 or_constraint3(11,10,1): + x_or(11,10,1) <= 1
 or_constraint3(11,10,2): + x_or(11,10,2) <= 1
 or_constraint3(11,10,3): + x_or(11,10,3) <= 1
 ST1(1,2): - x(1,2,1) - x(1,2,2) - x(1,2,3) - x(2,1,1) - x(2,1,2)
 - x(2,1,3) <= -1
 ST1(1,5): - x(1,5,1) - x(1,5,2) - x(1,5,3) - x(5,1,1) - x(5,1,2)
 - x(5,1,3) <= -1
 ST1(1,6): - x(1,6,1) - x(1,6,2) - x(1,6,3) - x(6,1,1) - x(6,1,2)
 - x(6,1,3) <= -1
 ST1(1,7): - x(1,7,1) - x(1,7,2) - x(1,7,3) - x(7,1,1) - x(7,1,2)
 - x(7,1,3) <= -1
 ST1(1,9): - x(1,9,1) - x(1,9,2) - x(1,9,3) - x(9,1,1) - x(9,1,2)
 - x(9,1,3) <= -1
 ST1(1,11): - x(1,11,1) - x(1,11,2) - x(1,11,3) - x(11,1,1) - x(11,1,2)
 - x(11,1,3) <= -1
 ST1(2,1): - x(1,2,1) - x(1,2,2) - x(1,2,3) - x(2,1,1) - x(2,1,2)
 - x(2,1,3) <= -1
 ST1(2,3): - x(2,3,1) - x(2,3,2) - x(2,3,3) - x(3,2,1) - x(3,2,2)
 - x(3,2,3) <= -1
 ST1(2,5): - x(2,5,1) - x(2,5,2) - x(2,5,3) - x(5,2,1) - x(5,2,2)
 - x(5,2,3) <= -1
 ST1(2,8): - x(2,8,1) - x(2,8,2) - x(2,8,3) - x(8,2,1) - x(8,2,2)
 - x(8,2,3) <= -1
 ST1(3,2): - x(2,3,1) - x(2,3,2) - x(2,3,3) - x(3,2,1) - x(3,2,2)
 - x(3,2,3) <= -1
 ST1(3,5): - x(3,5,1) - x(3,5,2) - x(3,5,3) - x(5,3,1) - x(5,3,2)
 - x(5,3,3) <= -1
 ST1(3,6): - x(3,6,1) - x(3,6,2) - x(3,6,3) - x(6,3,1) - x(6,3,2)
 - x(6,3,3) <= -1
 ST1(3,7): - x(3,7,1) - x(3,7,2) - x(3,7,3) - x(7,3,1) - x(7,3,2)
 - x(7,3,3) <= -1
 ST1(3,8): - x(3,8,1) - x(3,8,2) - x(3,8,3) - x(8,3,1) - x(8,3,2)
 - x(8,3,3) <= -1
 ST1(4,6): - x(4,6,1) - x(4,6,2) - x(4,6,3) - x(6,4,1) - x(6,4,2)
 - x(6,4,3) <= -1
 ST1(4,7): - x(4,7,1) - x(4,7,2) - x(4,7,3) - x(7,4,1) - x(7,4,2)
 - x(7,4,3) <= -1
 ST1(4,8): - x(4,8,1) - x(4,8,2) - x(4,8,3) - x(8,4,1) - x(8,4,2)
 - x(8,4,3) <= -1
 ST1(4,9): - x(4,9,1) - x(4,9,2) - x(4,9,3) - x(9,4,1) - x(9,4,2)
 - x(9,4,3) <= -1
 ST1(4,10): - x(4,10,1) - x(4,10,2) - x(4,10,3) - x(10,4,1) - x(10,4,2)
 - x(10,4,3) <= -1
 ST1(5,1): - x(1,5,1) - x(1,5,2) - x(1,5,3) - x(5,1,1) - x(5,1,2)
 - x(5,1,3) <= -1
 ST1(5,2): - x(2,5,1) - x(2,5,2) - x(2,5,3) - x(5,2,1) - x(5,2,2)
 - x(5,2,3) <= -1
 ST1(5,3): - x(3,5,1) - x(3,5,2) - x(3,5,3) - x(5,3,1) - x(5,3,2)
 - x(5,3,3) <= -1
 ST1(5,6): - x(5,6,1) - x(5,6,2) - x(5,6,3) - x(6,5,1) - x(6,5,2)
 - x(6,5,3) <= -1
 ST1(5,11): - x(5,11,1) - x(5,11,2) - x(5,11,3) - x(11,5,1) - x(11,5,2)
 - x(11,5,3) <= -1
 ST1(6,1): - x(1,6,1) - x(1,6,2) - x(1,6,3) - x(6,1,1) - x(6,1,2)
 - x(6,1,3) <= -1
 ST1(6,3): - x(3,6,1) - x(3,6,2) - x(3,6,3) - x(6,3,1) - x(6,3,2)
 - x(6,3,3) <= -1
 ST1(6,4): - x(4,6,1) - x(4,6,2) - x(4,6,3) - x(6,4,1) - x(6,4,2)
 - x(6,4,3) <= -1
 ST1(6,5): - x(5,6,1) - x(5,6,2) - x(5,6,3) - x(6,5,1) - x(6,5,2)
 - x(6,5,3) <= -1
 ST1(6,9): - x(6,9,1) - x(6,9,2) - x(6,9,3) - x(9,6,1) - x(9,6,2)
 - x(9,6,3) <= -1
 ST1(7,1): - x(1,7,1) - x(1,7,2) - x(1,7,3) - x(7,1,1) - x(7,1,2)
 - x(7,1,3) <= -1
 ST1(7,3): - x(3,7,1) - x(3,7,2) - x(3,7,3) - x(7,3,1) - x(7,3,2)
 - x(7,3,3) <= -1
 ST1(7,4): - x(4,7,1) - x(4,7,2) - x(4,7,3) - x(7,4,1) - x(7,4,2)
 - x(7,4,3) <= -1
 ST1(7,8): - x(7,8,1) - x(7,8,2) - x(7,8,3) - x(8,7,1) - x(8,7,2)
 - x(8,7,3) <= -1
 ST1(7,10): - x(7,10,1) - x(7,10,2) - x(7,10,3) - x(10,7,1) - x(10,7,2)
 - x(10,7,3) <= -1
 ST1(8,2): - x(2,8,1) - x(2,8,2) - x(2,8,3) - x(8,2,1) - x(8,2,2)
 - x(8,2,3) <= -1
 ST1(8,3): - x(3,8,1) - x(3,8,2) - x(3,8,3) - x(8,3,1) - x(8,3,2)
 - x(8,3,3) <= -1
 ST1(8,4): - x(4,8,1) - x(4,8,2) - x(4,8,3) - x(8,4,1) - x(8,4,2)
 - x(8,4,3) <= -1
 ST1(8,7): - x(7,8,1) - x(7,8,2) - x(7,8,3) - x(8,7,1) - x(8,7,2)
 - x(8,7,3) <= -1
 ST1(9,1): - x(1,9,1) - x(1,9,2) - x(1,9,3) - x(9,1,1) - x(9,1,2)
 - x(9,1,3) <= -1
 ST1(9,4): - x(4,9,1) - x(4,9,2) - x(4,9,3) - x(9,4,1) - x(9,4,2)
 - x(9,4,3) <= -1
 ST1(9,6): - x(6,9,1) - x(6,9,2) - x(6,9,3) - x(9,6,1) - x(9,6,2)
 - x(9,6,3) <= -1
 ST1(9,10): - x(9,10,1) - x(9,10,2) - x(9,10,3) - x(10,9,1) - x(10,9,2)
 - x(10,9,3) <= -1
 ST1(9,11): - x(9,11,1) - x(9,11,2) - x(9,11,3) - x(11,9,1) - x(11,9,2)
 - x(11,9,3) <= -1
 ST1(10,4): - x(4,10,1) - x(4,10,2) - x(4,10,3) - x(10,4,1) - x(10,4,2)
 - x(10,4,3) <= -1
 ST1(10,7): - x(7,10,1) - x(7,10,2) - x(7,10,3) - x(10,7,1) - x(10,7,2)
 - x(10,7,3) <= -1
 ST1(10,9): - x(9,10,1) - x(9,10,2) - x(9,10,3) - x(10,9,1) - x(10,9,2)
 - x(10,9,3) <= -1
 ST1(10,11): - x(10,11,1) - x(10,11,2) - x(10,11,3) - x(11,10,1)
 - x(11,10,2) - x(11,10,3) <= -1
 ST1(11,1): - x(1,11,1) - x(1,11,2) - x(1,11,3) - x(11,1,1) - x(11,1,2)
 - x(11,1,3) <= -1
 ST1(11,5): - x(5,11,1) - x(5,11,2) - x(5,11,3) - x(11,5,1) - x(11,5,2)
 - x(11,5,3) <= -1
 ST1(11,9): - x(9,11,1) - x(9,11,2) - x(9,11,3) - x(11,9,1) - x(11,9,2)
 - x(11,9,3) <= -1
 ST1(11,10): - x(10,11,1) - x(10,11,2) - x(10,11,3) - x(11,10,1)
 - x(11,10,2) - x(11,10,3) <= -1
 ST2(1,1): + x(1,2,1) + x(1,5,1) + x(1,6,1) + x(1,7,1) + x(1,9,1)
 + x(1,11,1) - DP(1,1) >= -0
 ST2(1,2): + x(2,1,1) + x(2,3,1) + x(2,5,1) + x(2,8,1) - DP(2,1) >= -0
 ST2(1,3): + x(3,2,1) + x(3,5,1) + x(3,6,1) + x(3,7,1) + x(3,8,1)
 - DP(3,1) >= -0
 ST2(1,4): + x(4,6,1) + x(4,7,1) + x(4,8,1) + x(4,9,1) + x(4,10,1)
 - DP(4,1) >= -0
 ST2(1,5): + x(5,1,1) + x(5,2,1) + x(5,3,1) + x(5,6,1) + x(5,11,1)
 - DP(5,1) >= -0
 ST2(1,6): + x(6,1,1) + x(6,3,1) + x(6,4,1) + x(6,5,1) + x(6,9,1)
 - DP(6,1) >= -0
 ST2(1,7): + x(7,1,1) + x(7,3,1) + x(7,4,1) + x(7,8,1) + x(7,10,1)
 - DP(7,1) >= -0
 ST2(1,8): + x(8,2,1) + x(8,3,1) + x(8,4,1) + x(8,7,1) - DP(8,1) >= -0
 ST2(1,9): + x(9,1,1) + x(9,4,1) + x(9,6,1) + x(9,10,1) + x(9,11,1)
 - DP(9,1) >= -0
 ST2(1,10): + x(10,4,1) + x(10,7,1) + x(10,9,1) + x(10,11,1) - DP(10,1)
 >= -0
 ST2(1,11): + x(11,1,1) + x(11,5,1) + x(11,9,1) + x(11,10,1) - DP(11,1)
 >= -0
 ST2(2,1): + x(1,2,2) + x(1,5,2) + x(1,6,2) + x(1,7,2) + x(1,9,2)
 + x(1,11,2) - DP(1,2) >= -0
 ST2(2,2): + x(2,1,2) + x(2,3,2) + x(2,5,2) + x(2,8,2) - DP(2,2) >= -0
 ST2(2,3): + x(3,2,2) + x(3,5,2) + x(3,6,2) + x(3,7,2) + x(3,8,2)
 - DP(3,2) >= -0
 ST2(2,4): + x(4,6,2) + x(4,7,2) + x(4,8,2) + x(4,9,2) + x(4,10,2)
 - DP(4,2) >= -0
 ST2(2,5): + x(5,1,2) + x(5,2,2) + x(5,3,2) + x(5,6,2) + x(5,11,2)
 - DP(5,2) >= -0
 ST2(2,6): + x(6,1,2) + x(6,3,2) + x(6,4,2) + x(6,5,2) + x(6,9,2)
 - DP(6,2) >= -0
 ST2(2,7): + x(7,1,2) + x(7,3,2) + x(7,4,2) + x(7,8,2) + x(7,10,2)
 - DP(7,2) >= -0
 ST2(2,8): + x(8,2,2) + x(8,3,2) + x(8,4,2) + x(8,7,2) - DP(8,2) >= -0
 ST2(2,9): + x(9,1,2) + x(9,4,2) + x(9,6,2) + x(9,10,2) + x(9,11,2)
 - DP(9,2) >= -0
 ST2(2,10): + x(10,4,2) + x(10,7,2) + x(10,9,2) + x(10,11,2) - DP(10,2)
 >= -0
 ST2(2,11): + x(11,1,2) + x(11,5,2) + x(11,9,2) + x(11,10,2) - DP(11,2)
 >= -0
 ST2(3,1): + x(1,2,3) + x(1,5,3) + x(1,6,3) + x(1,7,3) + x(1,9,3)
 + x(1,11,3) - DP(1,3) >= -0
 ST2(3,2): + x(2,1,3) + x(2,3,3) + x(2,5,3) + x(2,8,3) - DP(2,3) >= -0
 ST2(3,3): + x(3,2,3) + x(3,5,3) + x(3,6,3) + x(3,7,3) + x(3,8,3)
 - DP(3,3) >= -0
 ST2(3,4): + x(4,6,3) + x(4,7,3) + x(4,8,3) + x(4,9,3) + x(4,10,3)
 - DP(4,3) >= -0
 ST2(3,5): + x(5,1,3) + x(5,2,3) + x(5,3,3) + x(5,6,3) + x(5,11,3)
 - DP(5,3) >= -0
 ST2(3,6): + x(6,1,3) + x(6,3,3) + x(6,4,3) + x(6,5,3) + x(6,9,3)
 - DP(6,3) >= -0
 ST2(3,7): + x(7,1,3) + x(7,3,3) + x(7,4,3) + x(7,8,3) + x(7,10,3)
 - DP(7,3) >= -0
 ST2(3,8): + x(8,2,3) + x(8,3,3) + x(8,4,3) + x(8,7,3) - DP(8,3) >= -0
 ST2(3,9): + x(9,1,3) + x(9,4,3) + x(9,6,3) + x(9,10,3) + x(9,11,3)
 - DP(9,3) >= -0
 ST2(3,10): + x(10,4,3) + x(10,7,3) + x(10,9,3) + x(10,11,3) - DP(10,3)
 >= -0
 ST2(3,11): + x(11,1,3) + x(11,5,3) + x(11,9,3) + x(11,10,3) - DP(11,3)
 >= -0
 ST3(1,1): - x(1,2,1) - x(1,5,1) - x(1,6,1) - x(1,7,1) - x(1,9,1)
 - x(1,11,1) + x(2,1,1) + x(5,1,1) + x(6,1,1) + x(7,1,1) + x(9,1,1)
 + x(11,1,1) = -0
 ST3(1,2): - x(1,2,2) - x(1,5,2) - x(1,6,2) - x(1,7,2) - x(1,9,2)
 - x(1,11,2) + x(2,1,2) + x(5,1,2) + x(6,1,2) + x(7,1,2) + x(9,1,2)
 + x(11,1,2) = -0
 ST3(1,3): - x(1,2,3) - x(1,5,3) - x(1,6,3) - x(1,7,3) - x(1,9,3)
 - x(1,11,3) + x(2,1,3) + x(5,1,3) + x(6,1,3) + x(7,1,3) + x(9,1,3)
 + x(11,1,3) = -0
 ST3(2,1): + x(1,2,1) - x(2,1,1) - x(2,3,1) - x(2,5,1) - x(2,8,1)
 + x(3,2,1) + x(5,2,1) + x(8,2,1) = -0
 ST3(2,2): + x(1,2,2) - x(2,1,2) - x(2,3,2) - x(2,5,2) - x(2,8,2)
 + x(3,2,2) + x(5,2,2) + x(8,2,2) = -0
 ST3(2,3): + x(1,2,3) - x(2,1,3) - x(2,3,3) - x(2,5,3) - x(2,8,3)
 + x(3,2,3) + x(5,2,3) + x(8,2,3) = -0
 ST3(3,1): + x(2,3,1) - x(3,2,1) - x(3,5,1) - x(3,6,1) - x(3,7,1)
 - x(3,8,1) + x(5,3,1) + x(6,3,1) + x(7,3,1) + x(8,3,1) = -0
 ST3(3,2): + x(2,3,2) - x(3,2,2) - x(3,5,2) - x(3,6,2) - x(3,7,2)
 - x(3,8,2) + x(5,3,2) + x(6,3,2) + x(7,3,2) + x(8,3,2) = -0
 ST3(3,3): + x(2,3,3) - x(3,2,3) - x(3,5,3) - x(3,6,3) - x(3,7,3)
 - x(3,8,3) + x(5,3,3) + x(6,3,3) + x(7,3,3) + x(8,3,3) = -0
 ST3(4,1): - x(4,6,1) - x(4,7,1) - x(4,8,1) - x(4,9,1) - x(4,10,1)
 + x(6,4,1) + x(7,4,1) + x(8,4,1) + x(9,4,1) + x(10,4,1) = -0
 ST3(4,2): - x(4,6,2) - x(4,7,2) - x(4,8,2) - x(4,9,2) - x(4,10,2)
 + x(6,4,2) + x(7,4,2) + x(8,4,2) + x(9,4,2) + x(10,4,2) = -0
 ST3(4,3): - x(4,6,3) - x(4,7,3) - x(4,8,3) - x(4,9,3) - x(4,10,3)
 + x(6,4,3) + x(7,4,3) + x(8,4,3) + x(9,4,3) + x(10,4,3) = -0
 ST3(5,1): + x(1,5,1) + x(2,5,1) + x(3,5,1) - x(5,1,1) - x(5,2,1)
 - x(5,3,1) - x(5,6,1) - x(5,11,1) + x(6,5,1) + x(11,5,1) = -0
 ST3(5,2): + x(1,5,2) + x(2,5,2) + x(3,5,2) - x(5,1,2) - x(5,2,2)
 - x(5,3,2) - x(5,6,2) - x(5,11,2) + x(6,5,2) + x(11,5,2) = -0
 ST3(5,3): + x(1,5,3) + x(2,5,3) + x(3,5,3) - x(5,1,3) - x(5,2,3)
 - x(5,3,3) - x(5,6,3) - x(5,11,3) + x(6,5,3) + x(11,5,3) = -0
 ST3(6,1): + x(1,6,1) + x(3,6,1) + x(4,6,1) + x(5,6,1) - x(6,1,1)
 - x(6,3,1) - x(6,4,1) - x(6,5,1) - x(6,9,1) + x(9,6,1) = -0
 ST3(6,2): + x(1,6,2) + x(3,6,2) + x(4,6,2) + x(5,6,2) - x(6,1,2)
 - x(6,3,2) - x(6,4,2) - x(6,5,2) - x(6,9,2) + x(9,6,2) = -0
 ST3(6,3): + x(1,6,3) + x(3,6,3) + x(4,6,3) + x(5,6,3) - x(6,1,3)
 - x(6,3,3) - x(6,4,3) - x(6,5,3) - x(6,9,3) + x(9,6,3) = -0
 ST3(7,1): + x(1,7,1) + x(3,7,1) + x(4,7,1) - x(7,1,1) - x(7,3,1)
 - x(7,4,1) - x(7,8,1) - x(7,10,1) + x(8,7,1) + x(10,7,1) = -0
 ST3(7,2): + x(1,7,2) + x(3,7,2) + x(4,7,2) - x(7,1,2) - x(7,3,2)
 - x(7,4,2) - x(7,8,2) - x(7,10,2) + x(8,7,2) + x(10,7,2) = -0
 ST3(7,3): + x(1,7,3) + x(3,7,3) + x(4,7,3) - x(7,1,3) - x(7,3,3)
 - x(7,4,3) - x(7,8,3) - x(7,10,3) + x(8,7,3) + x(10,7,3) = -0
 ST3(8,1): + x(2,8,1) + x(3,8,1) + x(4,8,1) + x(7,8,1) - x(8,2,1)
 - x(8,3,1) - x(8,4,1) - x(8,7,1) = -0
 ST3(8,2): + x(2,8,2) + x(3,8,2) + x(4,8,2) + x(7,8,2) - x(8,2,2)
 - x(8,3,2) - x(8,4,2) - x(8,7,2) = -0
 ST3(8,3): + x(2,8,3) + x(3,8,3) + x(4,8,3) + x(7,8,3) - x(8,2,3)
 - x(8,3,3) - x(8,4,3) - x(8,7,3) = -0
 ST3(9,1): + x(1,9,1) + x(4,9,1) + x(6,9,1) - x(9,1,1) - x(9,4,1)
 - x(9,6,1) - x(9,10,1) - x(9,11,1) + x(10,9,1) + x(11,9,1) = -0
 ST3(9,2): + x(1,9,2) + x(4,9,2) + x(6,9,2) - x(9,1,2) - x(9,4,2)
 - x(9,6,2) - x(9,10,2) - x(9,11,2) + x(10,9,2) + x(11,9,2) = -0
 ST3(9,3): + x(1,9,3) + x(4,9,3) + x(6,9,3) - x(9,1,3) - x(9,4,3)
 - x(9,6,3) - x(9,10,3) - x(9,11,3) + x(10,9,3) + x(11,9,3) = -0
 ST3(10,1): + x(4,10,1) + x(7,10,1) + x(9,10,1) - x(10,4,1) - x(10,7,1)
 - x(10,9,1) - x(10,11,1) + x(11,10,1) = -0
 ST3(10,2): + x(4,10,2) + x(7,10,2) + x(9,10,2) - x(10,4,2) - x(10,7,2)
 - x(10,9,2) - x(10,11,2) + x(11,10,2) = -0
 ST3(10,3): + x(4,10,3) + x(7,10,3) + x(9,10,3) - x(10,4,3) - x(10,7,3)
 - x(10,9,3) - x(10,11,3) + x(11,10,3) = -0
 ST3(11,1): + x(1,11,1) + x(5,11,1) + x(9,11,1) + x(10,11,1) - x(11,1,1)
 - x(11,5,1) - x(11,9,1) - x(11,10,1) = -0
 ST3(11,2): + x(1,11,2) + x(5,11,2) + x(9,11,2) + x(10,11,2) - x(11,1,2)
 - x(11,5,2) - x(11,9,2) - x(11,10,2) = -0
 ST3(11,3): + x(1,11,3) + x(5,11,3) + x(9,11,3) + x(10,11,3) - x(11,1,3)
 - x(11,5,3) - x(11,9,3) - x(11,10,3) = -0
 ST4(1,1): + x(1,2,1) + x(1,5,1) + x(1,6,1) + x(1,7,1) + x(1,9,1)
 + x(1,11,1) + x(2,1,1) + x(5,1,1) + x(6,1,1) + x(7,1,1) + x(9,1,1)
 + x(11,1,1) - 104 b(1,1) <= -0
 ST4(1,2): + x(1,2,2) + x(1,5,2) + x(1,6,2) + x(1,7,2) + x(1,9,2)
 + x(1,11,2) + x(2,1,2) + x(5,1,2) + x(6,1,2) + x(7,1,2) + x(9,1,2)
 + x(11,1,2) - 104 b(1,2) <= -0
 ST4(1,3): + x(1,2,3) + x(1,5,3) + x(1,6,3) + x(1,7,3) + x(1,9,3)
 + x(1,11,3) + x(2,1,3) + x(5,1,3) + x(6,1,3) + x(7,1,3) + x(9,1,3)
 + x(11,1,3) - 104 b(1,3) <= -0
 ST4(2,1): + x(1,2,1) + x(2,1,1) + x(2,3,1) + x(2,5,1) + x(2,8,1)
 + x(3,2,1) + x(5,2,1) + x(8,2,1) - 104 b(2,1) <= -0
 ST4(2,2): + x(1,2,2) + x(2,1,2) + x(2,3,2) + x(2,5,2) + x(2,8,2)
 + x(3,2,2) + x(5,2,2) + x(8,2,2) - 104 b(2,2) <= -0
 ST4(2,3): + x(1,2,3) + x(2,1,3) + x(2,3,3) + x(2,5,3) + x(2,8,3)
 + x(3,2,3) + x(5,2,3) + x(8,2,3) - 104 b(2,3) <= -0
 ST4(3,1): + x(2,3,1) + x(3,2,1) + x(3,5,1) + x(3,6,1) + x(3,7,1)
 + x(3,8,1) + x(5,3,1) + x(6,3,1) + x(7,3,1) + x(8,3,1) - 104 b(3,1)
 <= -0
 ST4(3,2): + x(2,3,2) + x(3,2,2) + x(3,5,2) + x(3,6,2) + x(3,7,2)
 + x(3,8,2) + x(5,3,2) + x(6,3,2) + x(7,3,2) + x(8,3,2) - 104 b(3,2)
 <= -0
 ST4(3,3): + x(2,3,3) + x(3,2,3) + x(3,5,3) + x(3,6,3) + x(3,7,3)
 + x(3,8,3) + x(5,3,3) + x(6,3,3) + x(7,3,3) + x(8,3,3) - 104 b(3,3)
 <= -0
 ST4(4,1): + x(4,6,1) + x(4,7,1) + x(4,8,1) + x(4,9,1) + x(4,10,1)
 + x(6,4,1) + x(7,4,1) + x(8,4,1) + x(9,4,1) + x(10,4,1) - 104 b(4,1)
 <= -0
 ST4(4,2): + x(4,6,2) + x(4,7,2) + x(4,8,2) + x(4,9,2) + x(4,10,2)
 + x(6,4,2) + x(7,4,2) + x(8,4,2) + x(9,4,2) + x(10,4,2) - 104 b(4,2)
 <= -0
 ST4(4,3): + x(4,6,3) + x(4,7,3) + x(4,8,3) + x(4,9,3) + x(4,10,3)
 + x(6,4,3) + x(7,4,3) + x(8,4,3) + x(9,4,3) + x(10,4,3) - 104 b(4,3)
 <= -0
 ST4(5,1): + x(1,5,1) + x(2,5,1) + x(3,5,1) + x(5,1,1) + x(5,2,1)
 + x(5,3,1) + x(5,6,1) + x(5,11,1) + x(6,5,1) + x(11,5,1) - 104 b(5,1)
 <= -0
 ST4(5,2): + x(1,5,2) + x(2,5,2) + x(3,5,2) + x(5,1,2) + x(5,2,2)
 + x(5,3,2) + x(5,6,2) + x(5,11,2) + x(6,5,2) + x(11,5,2) - 104 b(5,2)
 <= -0
 ST4(5,3): + x(1,5,3) + x(2,5,3) + x(3,5,3) + x(5,1,3) + x(5,2,3)
 + x(5,3,3) + x(5,6,3) + x(5,11,3) + x(6,5,3) + x(11,5,3) - 104 b(5,3)
 <= -0
 ST4(6,1): + x(1,6,1) + x(3,6,1) + x(4,6,1) + x(5,6,1) + x(6,1,1)
 + x(6,3,1) + x(6,4,1) + x(6,5,1) + x(6,9,1) + x(9,6,1) - 104 b(6,1)
 <= -0
 ST4(6,2): + x(1,6,2) + x(3,6,2) + x(4,6,2) + x(5,6,2) + x(6,1,2)
 + x(6,3,2) + x(6,4,2) + x(6,5,2) + x(6,9,2) + x(9,6,2) - 104 b(6,2)
 <= -0
 ST4(6,3): + x(1,6,3) + x(3,6,3) + x(4,6,3) + x(5,6,3) + x(6,1,3)
 + x(6,3,3) + x(6,4,3) + x(6,5,3) + x(6,9,3) + x(9,6,3) - 104 b(6,3)
 <= -0
 ST4(7,1): + x(1,7,1) + x(3,7,1) + x(4,7,1) + x(7,1,1) + x(7,3,1)
 + x(7,4,1) + x(7,8,1) + x(7,10,1) + x(8,7,1) + x(10,7,1) - 104 b(7,1)
 <= -0
 ST4(7,2): + x(1,7,2) + x(3,7,2) + x(4,7,2) + x(7,1,2) + x(7,3,2)
 + x(7,4,2) + x(7,8,2) + x(7,10,2) + x(8,7,2) + x(10,7,2) - 104 b(7,2)
 <= -0
 ST4(7,3): + x(1,7,3) + x(3,7,3) + x(4,7,3) + x(7,1,3) + x(7,3,3)
 + x(7,4,3) + x(7,8,3) + x(7,10,3) + x(8,7,3) + x(10,7,3) - 104 b(7,3)
 <= -0
 ST4(8,1): + x(2,8,1) + x(3,8,1) + x(4,8,1) + x(7,8,1) + x(8,2,1)
 + x(8,3,1) + x(8,4,1) + x(8,7,1) - 104 b(8,1) <= -0
 ST4(8,2): + x(2,8,2) + x(3,8,2) + x(4,8,2) + x(7,8,2) + x(8,2,2)
 + x(8,3,2) + x(8,4,2) + x(8,7,2) - 104 b(8,2) <= -0
 ST4(8,3): + x(2,8,3) + x(3,8,3) + x(4,8,3) + x(7,8,3) + x(8,2,3)
 + x(8,3,3) + x(8,4,3) + x(8,7,3) - 104 b(8,3) <= -0
 ST4(9,1): + x(1,9,1) + x(4,9,1) + x(6,9,1) + x(9,1,1) + x(9,4,1)
 + x(9,6,1) + x(9,10,1) + x(9,11,1) + x(10,9,1) + x(11,9,1) - 104 b(9,1)
 <= -0
 ST4(9,2): + x(1,9,2) + x(4,9,2) + x(6,9,2) + x(9,1,2) + x(9,4,2)
 + x(9,6,2) + x(9,10,2) + x(9,11,2) + x(10,9,2) + x(11,9,2) - 104 b(9,2)
 <= -0
 ST4(9,3): + x(1,9,3) + x(4,9,3) + x(6,9,3) + x(9,1,3) + x(9,4,3)
 + x(9,6,3) + x(9,10,3) + x(9,11,3) + x(10,9,3) + x(11,9,3) - 104 b(9,3)
 <= -0
 ST4(10,1): + x(4,10,1) + x(7,10,1) + x(9,10,1) + x(10,4,1) + x(10,7,1)
 + x(10,9,1) + x(10,11,1) + x(11,10,1) - 104 b(10,1) <= -0
 ST4(10,2): + x(4,10,2) + x(7,10,2) + x(9,10,2) + x(10,4,2) + x(10,7,2)
 + x(10,9,2) + x(10,11,2) + x(11,10,2) - 104 b(10,2) <= -0
 ST4(10,3): + x(4,10,3) + x(7,10,3) + x(9,10,3) + x(10,4,3) + x(10,7,3)
 + x(10,9,3) + x(10,11,3) + x(11,10,3) - 104 b(10,3) <= -0
 ST4(11,1): + x(1,11,1) + x(5,11,1) + x(9,11,1) + x(10,11,1) + x(11,1,1)
 + x(11,5,1) + x(11,9,1) + x(11,10,1) - 104 b(11,1) <= -0
 ST4(11,2): + x(1,11,2) + x(5,11,2) + x(9,11,2) + x(10,11,2) + x(11,1,2)
 + x(11,5,2) + x(11,9,2) + x(11,10,2) - 104 b(11,2) <= -0
 ST4(11,3): + x(1,11,3) + x(5,11,3) + x(9,11,3) + x(10,11,3) + x(11,1,3)
 + x(11,5,3) + x(11,9,3) + x(11,10,3) - 104 b(11,3) <= -0
 FlowNonDepot_ub(1,1): - y(2,1,1) - y(5,1,1) - y(6,1,1) - y(7,1,1)
 - y(9,1,1) - y(11,1,1) + y(1,2,1) + y(1,5,1) + y(1,6,1) + y(1,7,1)
 + y(1,9,1) + y(1,11,1) + b(1,1) - 11 DP(1,1) <= -0
 FlowNonDepot_ub(1,2): - y(2,1,2) - y(5,1,2) - y(6,1,2) - y(7,1,2)
 - y(9,1,2) - y(11,1,2) + y(1,2,2) + y(1,5,2) + y(1,6,2) + y(1,7,2)
 + y(1,9,2) + y(1,11,2) + b(1,2) - 11 DP(1,2) <= -0
 FlowNonDepot_ub(1,3): - y(2,1,3) - y(5,1,3) - y(6,1,3) - y(7,1,3)
 - y(9,1,3) - y(11,1,3) + y(1,2,3) + y(1,5,3) + y(1,6,3) + y(1,7,3)
 + y(1,9,3) + y(1,11,3) + b(1,3) - 11 DP(1,3) <= -0
 FlowNonDepot_ub(2,1): + y(2,1,1) - y(1,2,1) - y(3,2,1) - y(5,2,1)
 - y(8,2,1) + y(2,3,1) + y(2,5,1) + y(2,8,1) + b(2,1) - 11 DP(2,1) <= -0
 FlowNonDepot_ub(2,2): + y(2,1,2) - y(1,2,2) - y(3,2,2) - y(5,2,2)
 - y(8,2,2) + y(2,3,2) + y(2,5,2) + y(2,8,2) + b(2,2) - 11 DP(2,2) <= -0
 FlowNonDepot_ub(2,3): + y(2,1,3) - y(1,2,3) - y(3,2,3) - y(5,2,3)
 - y(8,2,3) + y(2,3,3) + y(2,5,3) + y(2,8,3) + b(2,3) - 11 DP(2,3) <= -0
 FlowNonDepot_ub(3,1): + y(3,2,1) - y(2,3,1) - y(5,3,1) - y(6,3,1)
 - y(7,3,1) - y(8,3,1) + y(3,5,1) + y(3,6,1) + y(3,7,1) + y(3,8,1)
 + b(3,1) - 11 DP(3,1) <= -0
 FlowNonDepot_ub(3,2): + y(3,2,2) - y(2,3,2) - y(5,3,2) - y(6,3,2)
 - y(7,3,2) - y(8,3,2) + y(3,5,2) + y(3,6,2) + y(3,7,2) + y(3,8,2)
 + b(3,2) - 11 DP(3,2) <= -0
 FlowNonDepot_ub(3,3): + y(3,2,3) - y(2,3,3) - y(5,3,3) - y(6,3,3)
 - y(7,3,3) - y(8,3,3) + y(3,5,3) + y(3,6,3) + y(3,7,3) + y(3,8,3)
 + b(3,3) - 11 DP(3,3) <= -0
 FlowNonDepot_ub(4,1): - y(6,4,1) - y(7,4,1) - y(8,4,1) - y(9,4,1)
 - y(10,4,1) + y(4,6,1) + y(4,7,1) + y(4,8,1) + y(4,9,1) + y(4,10,1)
 + b(4,1) - 11 DP(4,1) <= -0
 FlowNonDepot_ub(4,2): - y(6,4,2) - y(7,4,2) - y(8,4,2) - y(9,4,2)
 - y(10,4,2) + y(4,6,2) + y(4,7,2) + y(4,8,2) + y(4,9,2) + y(4,10,2)
 + b(4,2) - 11 DP(4,2) <= -0
 FlowNonDepot_ub(4,3): - y(6,4,3) - y(7,4,3) - y(8,4,3) - y(9,4,3)
 - y(10,4,3) + y(4,6,3) + y(4,7,3) + y(4,8,3) + y(4,9,3) + y(4,10,3)
 + b(4,3) - 11 DP(4,3) <= -0
 FlowNonDepot_ub(5,1): + y(5,1,1) - y(1,5,1) + y(5,2,1) - y(2,5,1)
 + y(5,3,1) - y(3,5,1) - y(6,5,1) - y(11,5,1) + y(5,6,1) + y(5,11,1)
 + b(5,1) - 11 DP(5,1) <= -0
 FlowNonDepot_ub(5,2): + y(5,1,2) - y(1,5,2) + y(5,2,2) - y(2,5,2)
 + y(5,3,2) - y(3,5,2) - y(6,5,2) - y(11,5,2) + y(5,6,2) + y(5,11,2)
 + b(5,2) - 11 DP(5,2) <= -0
 FlowNonDepot_ub(5,3): + y(5,1,3) - y(1,5,3) + y(5,2,3) - y(2,5,3)
 + y(5,3,3) - y(3,5,3) - y(6,5,3) - y(11,5,3) + y(5,6,3) + y(5,11,3)
 + b(5,3) - 11 DP(5,3) <= -0
 FlowNonDepot_ub(6,1): + y(6,1,1) - y(1,6,1) + y(6,3,1) - y(3,6,1)
 + y(6,4,1) - y(4,6,1) + y(6,5,1) - y(5,6,1) - y(9,6,1) + y(6,9,1)
 + b(6,1) - 11 DP(6,1) <= -0
 FlowNonDepot_ub(6,2): + y(6,1,2) - y(1,6,2) + y(6,3,2) - y(3,6,2)
 + y(6,4,2) - y(4,6,2) + y(6,5,2) - y(5,6,2) - y(9,6,2) + y(6,9,2)
 + b(6,2) - 11 DP(6,2) <= -0
 FlowNonDepot_ub(6,3): + y(6,1,3) - y(1,6,3) + y(6,3,3) - y(3,6,3)
 + y(6,4,3) - y(4,6,3) + y(6,5,3) - y(5,6,3) - y(9,6,3) + y(6,9,3)
 + b(6,3) - 11 DP(6,3) <= -0
 FlowNonDepot_ub(7,1): + y(7,1,1) - y(1,7,1) + y(7,3,1) - y(3,7,1)
 + y(7,4,1) - y(4,7,1) - y(8,7,1) - y(10,7,1) + y(7,8,1) + y(7,10,1)
 + b(7,1) - 11 DP(7,1) <= -0
 FlowNonDepot_ub(7,2): + y(7,1,2) - y(1,7,2) + y(7,3,2) - y(3,7,2)
 + y(7,4,2) - y(4,7,2) - y(8,7,2) - y(10,7,2) + y(7,8,2) + y(7,10,2)
 + b(7,2) - 11 DP(7,2) <= -0
 FlowNonDepot_ub(7,3): + y(7,1,3) - y(1,7,3) + y(7,3,3) - y(3,7,3)
 + y(7,4,3) - y(4,7,3) - y(8,7,3) - y(10,7,3) + y(7,8,3) + y(7,10,3)
 + b(7,3) - 11 DP(7,3) <= -0
 FlowNonDepot_ub(8,1): + y(8,2,1) - y(2,8,1) + y(8,3,1) - y(3,8,1)
 + y(8,4,1) - y(4,8,1) + y(8,7,1) - y(7,8,1) + b(8,1) - 11 DP(8,1) <= -0
 FlowNonDepot_ub(8,2): + y(8,2,2) - y(2,8,2) + y(8,3,2) - y(3,8,2)
 + y(8,4,2) - y(4,8,2) + y(8,7,2) - y(7,8,2) + b(8,2) - 11 DP(8,2) <= -0
 FlowNonDepot_ub(8,3): + y(8,2,3) - y(2,8,3) + y(8,3,3) - y(3,8,3)
 + y(8,4,3) - y(4,8,3) + y(8,7,3) - y(7,8,3) + b(8,3) - 11 DP(8,3) <= -0
 FlowNonDepot_ub(9,1): + y(9,1,1) - y(1,9,1) + y(9,4,1) - y(4,9,1)
 + y(9,6,1) - y(6,9,1) - y(10,9,1) - y(11,9,1) + y(9,10,1) + y(9,11,1)
 + b(9,1) - 11 DP(9,1) <= -0
 FlowNonDepot_ub(9,2): + y(9,1,2) - y(1,9,2) + y(9,4,2) - y(4,9,2)
 + y(9,6,2) - y(6,9,2) - y(10,9,2) - y(11,9,2) + y(9,10,2) + y(9,11,2)
 + b(9,2) - 11 DP(9,2) <= -0
 FlowNonDepot_ub(9,3): + y(9,1,3) - y(1,9,3) + y(9,4,3) - y(4,9,3)
 + y(9,6,3) - y(6,9,3) - y(10,9,3) - y(11,9,3) + y(9,10,3) + y(9,11,3)
 + b(9,3) - 11 DP(9,3) <= -0
 FlowNonDepot_ub(10,1): + y(10,4,1) - y(4,10,1) + y(10,7,1) - y(7,10,1)
 + y(10,9,1) - y(9,10,1) - y(11,10,1) + y(10,11,1) + b(10,1)
 - 11 DP(10,1) <= -0
 FlowNonDepot_ub(10,2): + y(10,4,2) - y(4,10,2) + y(10,7,2) - y(7,10,2)
 + y(10,9,2) - y(9,10,2) - y(11,10,2) + y(10,11,2) + b(10,2)
 - 11 DP(10,2) <= -0
 FlowNonDepot_ub(10,3): + y(10,4,3) - y(4,10,3) + y(10,7,3) - y(7,10,3)
 + y(10,9,3) - y(9,10,3) - y(11,10,3) + y(10,11,3) + b(10,3)
 - 11 DP(10,3) <= -0
 FlowNonDepot_ub(11,1): + y(11,1,1) - y(1,11,1) + y(11,5,1) - y(5,11,1)
 + y(11,9,1) - y(9,11,1) + y(11,10,1) - y(10,11,1) + b(11,1)
 - 11 DP(11,1) <= -0
 FlowNonDepot_ub(11,2): + y(11,1,2) - y(1,11,2) + y(11,5,2) - y(5,11,2)
 + y(11,9,2) - y(9,11,2) + y(11,10,2) - y(10,11,2) + b(11,2)
 - 11 DP(11,2) <= -0
 FlowNonDepot_ub(11,3): + y(11,1,3) - y(1,11,3) + y(11,5,3) - y(5,11,3)
 + y(11,9,3) - y(9,11,3) + y(11,10,3) - y(10,11,3) + b(11,3)
 - 11 DP(11,3) <= -0
 FlowNonDepot_lb(1,1): - y(2,1,1) - y(5,1,1) - y(6,1,1) - y(7,1,1)
 - y(9,1,1) - y(11,1,1) + y(1,2,1) + y(1,5,1) + y(1,6,1) + y(1,7,1)
 + y(1,9,1) + y(1,11,1) + b(1,1) + 11 DP(1,1) >= -0
 FlowNonDepot_lb(1,2): - y(2,1,2) - y(5,1,2) - y(6,1,2) - y(7,1,2)
 - y(9,1,2) - y(11,1,2) + y(1,2,2) + y(1,5,2) + y(1,6,2) + y(1,7,2)
 + y(1,9,2) + y(1,11,2) + b(1,2) + 11 DP(1,2) >= -0
 FlowNonDepot_lb(1,3): - y(2,1,3) - y(5,1,3) - y(6,1,3) - y(7,1,3)
 - y(9,1,3) - y(11,1,3) + y(1,2,3) + y(1,5,3) + y(1,6,3) + y(1,7,3)
 + y(1,9,3) + y(1,11,3) + b(1,3) + 11 DP(1,3) >= -0
 FlowNonDepot_lb(2,1): + y(2,1,1) - y(1,2,1) - y(3,2,1) - y(5,2,1)
 - y(8,2,1) + y(2,3,1) + y(2,5,1) + y(2,8,1) + b(2,1) + 11 DP(2,1) >= -0
 FlowNonDepot_lb(2,2): + y(2,1,2) - y(1,2,2) - y(3,2,2) - y(5,2,2)
 - y(8,2,2) + y(2,3,2) + y(2,5,2) + y(2,8,2) + b(2,2) + 11 DP(2,2) >= -0
 FlowNonDepot_lb(2,3): + y(2,1,3) - y(1,2,3) - y(3,2,3) - y(5,2,3)
 - y(8,2,3) + y(2,3,3) + y(2,5,3) + y(2,8,3) + b(2,3) + 11 DP(2,3) >= -0
 FlowNonDepot_lb(3,1): + y(3,2,1) - y(2,3,1) - y(5,3,1) - y(6,3,1)
 - y(7,3,1) - y(8,3,1) + y(3,5,1) + y(3,6,1) + y(3,7,1) + y(3,8,1)
 + b(3,1) + 11 DP(3,1) >= -0
 FlowNonDepot_lb(3,2): + y(3,2,2) - y(2,3,2) - y(5,3,2) - y(6,3,2)
 - y(7,3,2) - y(8,3,2) + y(3,5,2) + y(3,6,2) + y(3,7,2) + y(3,8,2)
 + b(3,2) + 11 DP(3,2) >= -0
 FlowNonDepot_lb(3,3): + y(3,2,3) - y(2,3,3) - y(5,3,3) - y(6,3,3)
 - y(7,3,3) - y(8,3,3) + y(3,5,3) + y(3,6,3) + y(3,7,3) + y(3,8,3)
 + b(3,3) + 11 DP(3,3) >= -0
 FlowNonDepot_lb(4,1): - y(6,4,1) - y(7,4,1) - y(8,4,1) - y(9,4,1)
 - y(10,4,1) + y(4,6,1) + y(4,7,1) + y(4,8,1) + y(4,9,1) + y(4,10,1)
 + b(4,1) + 11 DP(4,1) >= -0
 FlowNonDepot_lb(4,2): - y(6,4,2) - y(7,4,2) - y(8,4,2) - y(9,4,2)
 - y(10,4,2) + y(4,6,2) + y(4,7,2) + y(4,8,2) + y(4,9,2) + y(4,10,2)
 + b(4,2) + 11 DP(4,2) >= -0
 FlowNonDepot_lb(4,3): - y(6,4,3) - y(7,4,3) - y(8,4,3) - y(9,4,3)
 - y(10,4,3) + y(4,6,3) + y(4,7,3) + y(4,8,3) + y(4,9,3) + y(4,10,3)
 + b(4,3) + 11 DP(4,3) >= -0
 FlowNonDepot_lb(5,1): + y(5,1,1) - y(1,5,1) + y(5,2,1) - y(2,5,1)
 + y(5,3,1) - y(3,5,1) - y(6,5,1) - y(11,5,1) + y(5,6,1) + y(5,11,1)
 + b(5,1) + 11 DP(5,1) >= -0
 FlowNonDepot_lb(5,2): + y(5,1,2) - y(1,5,2) + y(5,2,2) - y(2,5,2)
 + y(5,3,2) - y(3,5,2) - y(6,5,2) - y(11,5,2) + y(5,6,2) + y(5,11,2)
 + b(5,2) + 11 DP(5,2) >= -0
 FlowNonDepot_lb(5,3): + y(5,1,3) - y(1,5,3) + y(5,2,3) - y(2,5,3)
 + y(5,3,3) - y(3,5,3) - y(6,5,3) - y(11,5,3) + y(5,6,3) + y(5,11,3)
 + b(5,3) + 11 DP(5,3) >= -0
 FlowNonDepot_lb(6,1): + y(6,1,1) - y(1,6,1) + y(6,3,1) - y(3,6,1)
 + y(6,4,1) - y(4,6,1) + y(6,5,1) - y(5,6,1) - y(9,6,1) + y(6,9,1)
 + b(6,1) + 11 DP(6,1) >= -0
 FlowNonDepot_lb(6,2): + y(6,1,2) - y(1,6,2) + y(6,3,2) - y(3,6,2)
 + y(6,4,2) - y(4,6,2) + y(6,5,2) - y(5,6,2) - y(9,6,2) + y(6,9,2)
 + b(6,2) + 11 DP(6,2) >= -0
 FlowNonDepot_lb(6,3): + y(6,1,3) - y(1,6,3) + y(6,3,3) - y(3,6,3)
 + y(6,4,3) - y(4,6,3) + y(6,5,3) - y(5,6,3) - y(9,6,3) + y(6,9,3)
 + b(6,3) + 11 DP(6,3) >= -0
 FlowNonDepot_lb(7,1): + y(7,1,1) - y(1,7,1) + y(7,3,1) - y(3,7,1)
 + y(7,4,1) - y(4,7,1) - y(8,7,1) - y(10,7,1) + y(7,8,1) + y(7,10,1)
 + b(7,1) + 11 DP(7,1) >= -0
 FlowNonDepot_lb(7,2): + y(7,1,2) - y(1,7,2) + y(7,3,2) - y(3,7,2)
 + y(7,4,2) - y(4,7,2) - y(8,7,2) - y(10,7,2) + y(7,8,2) + y(7,10,2)
 + b(7,2) + 11 DP(7,2) >= -0
 FlowNonDepot_lb(7,3): + y(7,1,3) - y(1,7,3) + y(7,3,3) - y(3,7,3)
 + y(7,4,3) - y(4,7,3) - y(8,7,3) - y(10,7,3) + y(7,8,3) + y(7,10,3)
 + b(7,3) + 11 DP(7,3) >= -0
 FlowNonDepot_lb(8,1): + y(8,2,1) - y(2,8,1) + y(8,3,1) - y(3,8,1)
 + y(8,4,1) - y(4,8,1) + y(8,7,1) - y(7,8,1) + b(8,1) + 11 DP(8,1) >= -0
 FlowNonDepot_lb(8,2): + y(8,2,2) - y(2,8,2) + y(8,3,2) - y(3,8,2)
 + y(8,4,2) - y(4,8,2) + y(8,7,2) - y(7,8,2) + b(8,2) + 11 DP(8,2) >= -0
 FlowNonDepot_lb(8,3): + y(8,2,3) - y(2,8,3) + y(8,3,3) - y(3,8,3)
 + y(8,4,3) - y(4,8,3) + y(8,7,3) - y(7,8,3) + b(8,3) + 11 DP(8,3) >= -0
 FlowNonDepot_lb(9,1): + y(9,1,1) - y(1,9,1) + y(9,4,1) - y(4,9,1)
 + y(9,6,1) - y(6,9,1) - y(10,9,1) - y(11,9,1) + y(9,10,1) + y(9,11,1)
 + b(9,1) + 11 DP(9,1) >= -0
 FlowNonDepot_lb(9,2): + y(9,1,2) - y(1,9,2) + y(9,4,2) - y(4,9,2)
 + y(9,6,2) - y(6,9,2) - y(10,9,2) - y(11,9,2) + y(9,10,2) + y(9,11,2)
 + b(9,2) + 11 DP(9,2) >= -0
 FlowNonDepot_lb(9,3): + y(9,1,3) - y(1,9,3) + y(9,4,3) - y(4,9,3)
 + y(9,6,3) - y(6,9,3) - y(10,9,3) - y(11,9,3) + y(9,10,3) + y(9,11,3)
 + b(9,3) + 11 DP(9,3) >= -0
 FlowNonDepot_lb(10,1): + y(10,4,1) - y(4,10,1) + y(10,7,1) - y(7,10,1)
 + y(10,9,1) - y(9,10,1) - y(11,10,1) + y(10,11,1) + b(10,1)
 + 11 DP(10,1) >= -0
 FlowNonDepot_lb(10,2): + y(10,4,2) - y(4,10,2) + y(10,7,2) - y(7,10,2)
 + y(10,9,2) - y(9,10,2) - y(11,10,2) + y(10,11,2) + b(10,2)
 + 11 DP(10,2) >= -0
 FlowNonDepot_lb(10,3): + y(10,4,3) - y(4,10,3) + y(10,7,3) - y(7,10,3)
 + y(10,9,3) - y(9,10,3) - y(11,10,3) + y(10,11,3) + b(10,3)
 + 11 DP(10,3) >= -0
 FlowNonDepot_lb(11,1): + y(11,1,1) - y(1,11,1) + y(11,5,1) - y(5,11,1)
 + y(11,9,1) - y(9,11,1) + y(11,10,1) - y(10,11,1) + b(11,1)
 + 11 DP(11,1) >= -0
 FlowNonDepot_lb(11,2): + y(11,1,2) - y(1,11,2) + y(11,5,2) - y(5,11,2)
 + y(11,9,2) - y(9,11,2) + y(11,10,2) - y(10,11,2) + b(11,2)
 + 11 DP(11,2) >= -0
 FlowNonDepot_lb(11,3): + y(11,1,3) - y(1,11,3) + y(11,5,3) - y(5,11,3)
 + y(11,9,3) - y(9,11,3) + y(11,10,3) - y(10,11,3) + b(11,3)
 + 11 DP(11,3) >= -0
 ST402(1,2,1): - 52 x(1,2,1) + y(1,2,1) <= -0
 ST402(1,2,2): - 52 x(1,2,2) + y(1,2,2) <= -0
 ST402(1,2,3): - 52 x(1,2,3) + y(1,2,3) <= -0
 ST402(1,5,1): - 52 x(1,5,1) + y(1,5,1) <= -0
 ST402(1,5,2): - 52 x(1,5,2) + y(1,5,2) <= -0
 ST402(1,5,3): - 52 x(1,5,3) + y(1,5,3) <= -0
 ST402(1,6,1): - 52 x(1,6,1) + y(1,6,1) <= -0
 ST402(1,6,2): - 52 x(1,6,2) + y(1,6,2) <= -0
 ST402(1,6,3): - 52 x(1,6,3) + y(1,6,3) <= -0
 ST402(1,7,1): - 52 x(1,7,1) + y(1,7,1) <= -0
 ST402(1,7,2): - 52 x(1,7,2) + y(1,7,2) <= -0
 ST402(1,7,3): - 52 x(1,7,3) + y(1,7,3) <= -0
 ST402(1,9,1): - 52 x(1,9,1) + y(1,9,1) <= -0
 ST402(1,9,2): - 52 x(1,9,2) + y(1,9,2) <= -0
 ST402(1,9,3): - 52 x(1,9,3) + y(1,9,3) <= -0
 ST402(1,11,1): - 52 x(1,11,1) + y(1,11,1) <= -0
 ST402(1,11,2): - 52 x(1,11,2) + y(1,11,2) <= -0
 ST402(1,11,3): - 52 x(1,11,3) + y(1,11,3) <= -0
 ST402(2,1,1): - 52 x(2,1,1) + y(2,1,1) <= -0
 ST402(2,1,2): - 52 x(2,1,2) + y(2,1,2) <= -0
 ST402(2,1,3): - 52 x(2,1,3) + y(2,1,3) <= -0
 ST402(2,3,1): - 52 x(2,3,1) + y(2,3,1) <= -0
 ST402(2,3,2): - 52 x(2,3,2) + y(2,3,2) <= -0
 ST402(2,3,3): - 52 x(2,3,3) + y(2,3,3) <= -0
 ST402(2,5,1): - 52 x(2,5,1) + y(2,5,1) <= -0
 ST402(2,5,2): - 52 x(2,5,2) + y(2,5,2) <= -0
 ST402(2,5,3): - 52 x(2,5,3) + y(2,5,3) <= -0
 ST402(2,8,1): - 52 x(2,8,1) + y(2,8,1) <= -0
 ST402(2,8,2): - 52 x(2,8,2) + y(2,8,2) <= -0
 ST402(2,8,3): - 52 x(2,8,3) + y(2,8,3) <= -0
 ST402(3,2,1): - 52 x(3,2,1) + y(3,2,1) <= -0
 ST402(3,2,2): - 52 x(3,2,2) + y(3,2,2) <= -0
 ST402(3,2,3): - 52 x(3,2,3) + y(3,2,3) <= -0
 ST402(3,5,1): - 52 x(3,5,1) + y(3,5,1) <= -0
 ST402(3,5,2): - 52 x(3,5,2) + y(3,5,2) <= -0
 ST402(3,5,3): - 52 x(3,5,3) + y(3,5,3) <= -0
 ST402(3,6,1): - 52 x(3,6,1) + y(3,6,1) <= -0
 ST402(3,6,2): - 52 x(3,6,2) + y(3,6,2) <= -0
 ST402(3,6,3): - 52 x(3,6,3) + y(3,6,3) <= -0
 ST402(3,7,1): - 52 x(3,7,1) + y(3,7,1) <= -0
 ST402(3,7,2): - 52 x(3,7,2) + y(3,7,2) <= -0
 ST402(3,7,3): - 52 x(3,7,3) + y(3,7,3) <= -0
 ST402(3,8,1): - 52 x(3,8,1) + y(3,8,1) <= -0
 ST402(3,8,2): - 52 x(3,8,2) + y(3,8,2) <= -0
 ST402(3,8,3): - 52 x(3,8,3) + y(3,8,3) <= -0
 ST402(4,6,1): - 52 x(4,6,1) + y(4,6,1) <= -0
 ST402(4,6,2): - 52 x(4,6,2) + y(4,6,2) <= -0
 ST402(4,6,3): - 52 x(4,6,3) + y(4,6,3) <= -0
 ST402(4,7,1): - 52 x(4,7,1) + y(4,7,1) <= -0
 ST402(4,7,2): - 52 x(4,7,2) + y(4,7,2) <= -0
 ST402(4,7,3): - 52 x(4,7,3) + y(4,7,3) <= -0
 ST402(4,8,1): - 52 x(4,8,1) + y(4,8,1) <= -0
 ST402(4,8,2): - 52 x(4,8,2) + y(4,8,2) <= -0
 ST402(4,8,3): - 52 x(4,8,3) + y(4,8,3) <= -0
 ST402(4,9,1): - 52 x(4,9,1) + y(4,9,1) <= -0
 ST402(4,9,2): - 52 x(4,9,2) + y(4,9,2) <= -0
 ST402(4,9,3): - 52 x(4,9,3) + y(4,9,3) <= -0
 ST402(4,10,1): - 52 x(4,10,1) + y(4,10,1) <= -0
 ST402(4,10,2): - 52 x(4,10,2) + y(4,10,2) <= -0
 ST402(4,10,3): - 52 x(4,10,3) + y(4,10,3) <= -0
 ST402(5,1,1): - 52 x(5,1,1) + y(5,1,1) <= -0
 ST402(5,1,2): - 52 x(5,1,2) + y(5,1,2) <= -0
 ST402(5,1,3): - 52 x(5,1,3) + y(5,1,3) <= -0
 ST402(5,2,1): - 52 x(5,2,1) + y(5,2,1) <= -0
 ST402(5,2,2): - 52 x(5,2,2) + y(5,2,2) <= -0
 ST402(5,2,3): - 52 x(5,2,3) + y(5,2,3) <= -0
 ST402(5,3,1): - 52 x(5,3,1) + y(5,3,1) <= -0
 ST402(5,3,2): - 52 x(5,3,2) + y(5,3,2) <= -0
 ST402(5,3,3): - 52 x(5,3,3) + y(5,3,3) <= -0
 ST402(5,6,1): - 52 x(5,6,1) + y(5,6,1) <= -0
 ST402(5,6,2): - 52 x(5,6,2) + y(5,6,2) <= -0
 ST402(5,6,3): - 52 x(5,6,3) + y(5,6,3) <= -0
 ST402(5,11,1): - 52 x(5,11,1) + y(5,11,1) <= -0
 ST402(5,11,2): - 52 x(5,11,2) + y(5,11,2) <= -0
 ST402(5,11,3): - 52 x(5,11,3) + y(5,11,3) <= -0
 ST402(6,1,1): - 52 x(6,1,1) + y(6,1,1) <= -0
 ST402(6,1,2): - 52 x(6,1,2) + y(6,1,2) <= -0
 ST402(6,1,3): - 52 x(6,1,3) + y(6,1,3) <= -0
 ST402(6,3,1): - 52 x(6,3,1) + y(6,3,1) <= -0
 ST402(6,3,2): - 52 x(6,3,2) + y(6,3,2) <= -0
 ST402(6,3,3): - 52 x(6,3,3) + y(6,3,3) <= -0
 ST402(6,4,1): - 52 x(6,4,1) + y(6,4,1) <= -0
 ST402(6,4,2): - 52 x(6,4,2) + y(6,4,2) <= -0
 ST402(6,4,3): - 52 x(6,4,3) + y(6,4,3) <= -0
 ST402(6,5,1): - 52 x(6,5,1) + y(6,5,1) <= -0
 ST402(6,5,2): - 52 x(6,5,2) + y(6,5,2) <= -0
 ST402(6,5,3): - 52 x(6,5,3) + y(6,5,3) <= -0
 ST402(6,9,1): - 52 x(6,9,1) + y(6,9,1) <= -0
 ST402(6,9,2): - 52 x(6,9,2) + y(6,9,2) <= -0
 ST402(6,9,3): - 52 x(6,9,3) + y(6,9,3) <= -0
 ST402(7,1,1): - 52 x(7,1,1) + y(7,1,1) <= -0
 ST402(7,1,2): - 52 x(7,1,2) + y(7,1,2) <= -0
 ST402(7,1,3): - 52 x(7,1,3) + y(7,1,3) <= -0
 ST402(7,3,1): - 52 x(7,3,1) + y(7,3,1) <= -0
 ST402(7,3,2): - 52 x(7,3,2) + y(7,3,2) <= -0
 ST402(7,3,3): - 52 x(7,3,3) + y(7,3,3) <= -0
 ST402(7,4,1): - 52 x(7,4,1) + y(7,4,1) <= -0
 ST402(7,4,2): - 52 x(7,4,2) + y(7,4,2) <= -0
 ST402(7,4,3): - 52 x(7,4,3) + y(7,4,3) <= -0
 ST402(7,8,1): - 52 x(7,8,1) + y(7,8,1) <= -0
 ST402(7,8,2): - 52 x(7,8,2) + y(7,8,2) <= -0
 ST402(7,8,3): - 52 x(7,8,3) + y(7,8,3) <= -0
 ST402(7,10,1): - 52 x(7,10,1) + y(7,10,1) <= -0
 ST402(7,10,2): - 52 x(7,10,2) + y(7,10,2) <= -0
 ST402(7,10,3): - 52 x(7,10,3) + y(7,10,3) <= -0
 ST402(8,2,1): - 52 x(8,2,1) + y(8,2,1) <= -0
 ST402(8,2,2): - 52 x(8,2,2) + y(8,2,2) <= -0
 ST402(8,2,3): - 52 x(8,2,3) + y(8,2,3) <= -0
 ST402(8,3,1): - 52 x(8,3,1) + y(8,3,1) <= -0
 ST402(8,3,2): - 52 x(8,3,2) + y(8,3,2) <= -0
 ST402(8,3,3): - 52 x(8,3,3) + y(8,3,3) <= -0
 ST402(8,4,1): - 52 x(8,4,1) + y(8,4,1) <= -0
 ST402(8,4,2): - 52 x(8,4,2) + y(8,4,2) <= -0
 ST402(8,4,3): - 52 x(8,4,3) + y(8,4,3) <= -0
 ST402(8,7,1): - 52 x(8,7,1) + y(8,7,1) <= -0
 ST402(8,7,2): - 52 x(8,7,2) + y(8,7,2) <= -0
 ST402(8,7,3): - 52 x(8,7,3) + y(8,7,3) <= -0
 ST402(9,1,1): - 52 x(9,1,1) + y(9,1,1) <= -0
 ST402(9,1,2): - 52 x(9,1,2) + y(9,1,2) <= -0
 ST402(9,1,3): - 52 x(9,1,3) + y(9,1,3) <= -0
 ST402(9,4,1): - 52 x(9,4,1) + y(9,4,1) <= -0
 ST402(9,4,2): - 52 x(9,4,2) + y(9,4,2) <= -0
 ST402(9,4,3): - 52 x(9,4,3) + y(9,4,3) <= -0
 ST402(9,6,1): - 52 x(9,6,1) + y(9,6,1) <= -0
 ST402(9,6,2): - 52 x(9,6,2) + y(9,6,2) <= -0
 ST402(9,6,3): - 52 x(9,6,3) + y(9,6,3) <= -0
 ST402(9,10,1): - 52 x(9,10,1) + y(9,10,1) <= -0
 ST402(9,10,2): - 52 x(9,10,2) + y(9,10,2) <= -0
 ST402(9,10,3): - 52 x(9,10,3) + y(9,10,3) <= -0
 ST402(9,11,1): - 52 x(9,11,1) + y(9,11,1) <= -0
 ST402(9,11,2): - 52 x(9,11,2) + y(9,11,2) <= -0
 ST402(9,11,3): - 52 x(9,11,3) + y(9,11,3) <= -0
 ST402(10,4,1): - 52 x(10,4,1) + y(10,4,1) <= -0
 ST402(10,4,2): - 52 x(10,4,2) + y(10,4,2) <= -0
 ST402(10,4,3): - 52 x(10,4,3) + y(10,4,3) <= -0
 ST402(10,7,1): - 52 x(10,7,1) + y(10,7,1) <= -0
 ST402(10,7,2): - 52 x(10,7,2) + y(10,7,2) <= -0
 ST402(10,7,3): - 52 x(10,7,3) + y(10,7,3) <= -0
 ST402(10,9,1): - 52 x(10,9,1) + y(10,9,1) <= -0
 ST402(10,9,2): - 52 x(10,9,2) + y(10,9,2) <= -0
 ST402(10,9,3): - 52 x(10,9,3) + y(10,9,3) <= -0
 ST402(10,11,1): - 52 x(10,11,1) + y(10,11,1) <= -0
 ST402(10,11,2): - 52 x(10,11,2) + y(10,11,2) <= -0
 ST402(10,11,3): - 52 x(10,11,3) + y(10,11,3) <= -0
 ST402(11,1,1): - 52 x(11,1,1) + y(11,1,1) <= -0
 ST402(11,1,2): - 52 x(11,1,2) + y(11,1,2) <= -0
 ST402(11,1,3): - 52 x(11,1,3) + y(11,1,3) <= -0
 ST402(11,5,1): - 52 x(11,5,1) + y(11,5,1) <= -0
 ST402(11,5,2): - 52 x(11,5,2) + y(11,5,2) <= -0
 ST402(11,5,3): - 52 x(11,5,3) + y(11,5,3) <= -0
 ST402(11,9,1): - 52 x(11,9,1) + y(11,9,1) <= -0
 ST402(11,9,2): - 52 x(11,9,2) + y(11,9,2) <= -0
 ST402(11,9,3): - 52 x(11,9,3) + y(11,9,3) <= -0
 ST402(11,10,1): - 52 x(11,10,1) + y(11,10,1) <= -0
 ST402(11,10,2): - 52 x(11,10,2) + y(11,10,2) <= -0
 ST402(11,10,3): - 52 x(11,10,3) + y(11,10,3) <= -0
 ST5(1): - 343 x(1,2,1) - 264 x(1,5,1) - 294 x(1,6,1) - 877 x(1,7,1)
 - 488 x(1,9,1) - 640 x(1,11,1) - 343 x(2,1,1) - 358 x(2,3,1)
 - 321 x(2,5,1) - 956 x(2,8,1) - 358 x(3,2,1) - 173 x(3,5,1)
 - 296 x(3,6,1) - 576 x(3,7,1) - 621 x(3,8,1) - 595 x(4,6,1)
 - 281 x(4,7,1) - 635 x(4,8,1) - 526 x(4,9,1) - 251 x(4,10,1)
 - 264 x(5,1,1) - 321 x(5,2,1) - 173 x(5,3,1) - 171 x(5,6,1)
 - 697 x(5,11,1) - 294 x(6,1,1) - 296 x(6,3,1) - 595 x(6,4,1)
 - 171 x(6,5,1) - 324 x(6,9,1) - 877 x(7,1,1) - 576 x(7,3,1)
 - 281 x(7,4,1) - 356 x(7,8,1) - 523 x(7,10,1) - 956 x(8,2,1)
 - 621 x(8,3,1) - 635 x(8,4,1) - 356 x(8,7,1) - 488 x(9,1,1)
 - 526 x(9,4,1) - 324 x(9,6,1) - 592 x(9,10,1) - 218 x(9,11,1)
 - 251 x(10,4,1) - 523 x(10,7,1) - 592 x(10,9,1) - 625 x(10,11,1)
 - 640 x(11,1,1) - 697 x(11,5,1) - 218 x(11,9,1) - 625 x(11,10,1) + L(1)
 = -0
 ST5(2): - 343 x(1,2,2) - 264 x(1,5,2) - 294 x(1,6,2) - 877 x(1,7,2)
 - 488 x(1,9,2) - 640 x(1,11,2) - 343 x(2,1,2) - 358 x(2,3,2)
 - 321 x(2,5,2) - 956 x(2,8,2) - 358 x(3,2,2) - 173 x(3,5,2)
 - 296 x(3,6,2) - 576 x(3,7,2) - 621 x(3,8,2) - 595 x(4,6,2)
 - 281 x(4,7,2) - 635 x(4,8,2) - 526 x(4,9,2) - 251 x(4,10,2)
 - 264 x(5,1,2) - 321 x(5,2,2) - 173 x(5,3,2) - 171 x(5,6,2)
 - 697 x(5,11,2) - 294 x(6,1,2) - 296 x(6,3,2) - 595 x(6,4,2)
 - 171 x(6,5,2) - 324 x(6,9,2) - 877 x(7,1,2) - 576 x(7,3,2)
 - 281 x(7,4,2) - 356 x(7,8,2) - 523 x(7,10,2) - 956 x(8,2,2)
 - 621 x(8,3,2) - 635 x(8,4,2) - 356 x(8,7,2) - 488 x(9,1,2)
 - 526 x(9,4,2) - 324 x(9,6,2) - 592 x(9,10,2) - 218 x(9,11,2)
 - 251 x(10,4,2) - 523 x(10,7,2) - 592 x(10,9,2) - 625 x(10,11,2)
 - 640 x(11,1,2) - 697 x(11,5,2) - 218 x(11,9,2) - 625 x(11,10,2) + L(2)
 = -0
 ST5(3): - 343 x(1,2,3) - 264 x(1,5,3) - 294 x(1,6,3) - 877 x(1,7,3)
 - 488 x(1,9,3) - 640 x(1,11,3) - 343 x(2,1,3) - 358 x(2,3,3)
 - 321 x(2,5,3) - 956 x(2,8,3) - 358 x(3,2,3) - 173 x(3,5,3)
 - 296 x(3,6,3) - 576 x(3,7,3) - 621 x(3,8,3) - 595 x(4,6,3)
 - 281 x(4,7,3) - 635 x(4,8,3) - 526 x(4,9,3) - 251 x(4,10,3)
 - 264 x(5,1,3) - 321 x(5,2,3) - 173 x(5,3,3) - 171 x(5,6,3)
 - 697 x(5,11,3) - 294 x(6,1,3) - 296 x(6,3,3) - 595 x(6,4,3)
 - 171 x(6,5,3) - 324 x(6,9,3) - 877 x(7,1,3) - 576 x(7,3,3)
 - 281 x(7,4,3) - 356 x(7,8,3) - 523 x(7,10,3) - 956 x(8,2,3)
 - 621 x(8,3,3) - 635 x(8,4,3) - 356 x(8,7,3) - 488 x(9,1,3)
 - 526 x(9,4,3) - 324 x(9,6,3) - 592 x(9,10,3) - 218 x(9,11,3)
 - 251 x(10,4,3) - 523 x(10,7,3) - 592 x(10,9,3) - 625 x(10,11,3)
 - 640 x(11,1,3) - 697 x(11,5,3) - 218 x(11,9,3) - 625 x(11,10,3) + L(3)
 = -0
 ST6(1): - 343 x(1,2,1) - 264 x(1,5,1) - 294 x(1,6,1) - 877 x(1,7,1)
 - 488 x(1,9,1) - 640 x(1,11,1) - 343 x(2,1,1) - 358 x(2,3,1)
 - 321 x(2,5,1) - 956 x(2,8,1) - 358 x(3,2,1) - 173 x(3,5,1)
 - 296 x(3,6,1) - 576 x(3,7,1) - 621 x(3,8,1) - 595 x(4,6,1)
 - 281 x(4,7,1) - 635 x(4,8,1) - 526 x(4,9,1) - 251 x(4,10,1)
 - 264 x(5,1,1) - 321 x(5,2,1) - 173 x(5,3,1) - 171 x(5,6,1)
 - 697 x(5,11,1) - 294 x(6,1,1) - 296 x(6,3,1) - 595 x(6,4,1)
 - 171 x(6,5,1) - 324 x(6,9,1) - 877 x(7,1,1) - 576 x(7,3,1)
 - 281 x(7,4,1) - 356 x(7,8,1) - 523 x(7,10,1) - 956 x(8,2,1)
 - 621 x(8,3,1) - 635 x(8,4,1) - 356 x(8,7,1) - 488 x(9,1,1)
 - 526 x(9,4,1) - 324 x(9,6,1) - 592 x(9,10,1) - 218 x(9,11,1)
 - 251 x(10,4,1) - 523 x(10,7,1) - 592 x(10,9,1) - 625 x(10,11,1)
 - 640 x(11,1,1) - 697 x(11,5,1) - 218 x(11,9,1) - 625 x(11,10,1) + Lmax
 >= -0
 ST6(2): - 343 x(1,2,2) - 264 x(1,5,2) - 294 x(1,6,2) - 877 x(1,7,2)
 - 488 x(1,9,2) - 640 x(1,11,2) - 343 x(2,1,2) - 358 x(2,3,2)
 - 321 x(2,5,2) - 956 x(2,8,2) - 358 x(3,2,2) - 173 x(3,5,2)
 - 296 x(3,6,2) - 576 x(3,7,2) - 621 x(3,8,2) - 595 x(4,6,2)
 - 281 x(4,7,2) - 635 x(4,8,2) - 526 x(4,9,2) - 251 x(4,10,2)
 - 264 x(5,1,2) - 321 x(5,2,2) - 173 x(5,3,2) - 171 x(5,6,2)
 - 697 x(5,11,2) - 294 x(6,1,2) - 296 x(6,3,2) - 595 x(6,4,2)
 - 171 x(6,5,2) - 324 x(6,9,2) - 877 x(7,1,2) - 576 x(7,3,2)
 - 281 x(7,4,2) - 356 x(7,8,2) - 523 x(7,10,2) - 956 x(8,2,2)
 - 621 x(8,3,2) - 635 x(8,4,2) - 356 x(8,7,2) - 488 x(9,1,2)
 - 526 x(9,4,2) - 324 x(9,6,2) - 592 x(9,10,2) - 218 x(9,11,2)
 - 251 x(10,4,2) - 523 x(10,7,2) - 592 x(10,9,2) - 625 x(10,11,2)
 - 640 x(11,1,2) - 697 x(11,5,2) - 218 x(11,9,2) - 625 x(11,10,2) + Lmax
 >= -0
 ST6(3): - 343 x(1,2,3) - 264 x(1,5,3) - 294 x(1,6,3) - 877 x(1,7,3)
 - 488 x(1,9,3) - 640 x(1,11,3) - 343 x(2,1,3) - 358 x(2,3,3)
 - 321 x(2,5,3) - 956 x(2,8,3) - 358 x(3,2,3) - 173 x(3,5,3)
 - 296 x(3,6,3) - 576 x(3,7,3) - 621 x(3,8,3) - 595 x(4,6,3)
 - 281 x(4,7,3) - 635 x(4,8,3) - 526 x(4,9,3) - 251 x(4,10,3)
 - 264 x(5,1,3) - 321 x(5,2,3) - 173 x(5,3,3) - 171 x(5,6,3)
 - 697 x(5,11,3) - 294 x(6,1,3) - 296 x(6,3,3) - 595 x(6,4,3)
 - 171 x(6,5,3) - 324 x(6,9,3) - 877 x(7,1,3) - 576 x(7,3,3)
 - 281 x(7,4,3) - 356 x(7,8,3) - 523 x(7,10,3) - 956 x(8,2,3)
 - 621 x(8,3,3) - 635 x(8,4,3) - 356 x(8,7,3) - 488 x(9,1,3)
 - 526 x(9,4,3) - 324 x(9,6,3) - 592 x(9,10,3) - 218 x(9,11,3)
 - 251 x(10,4,3) - 523 x(10,7,3) - 592 x(10,9,3) - 625 x(10,11,3)
 - 640 x(11,1,3) - 697 x(11,5,3) - 218 x(11,9,3) - 625 x(11,10,3) + Lmax
 >= -0
 ST7(1): + DP(1,1) + DP(2,1) + DP(3,1) + DP(4,1) + DP(5,1) + DP(6,1)
 + DP(7,1) + DP(8,1) + DP(9,1) + DP(10,1) + DP(11,1) = 1
 ST7(2): + DP(1,2) + DP(2,2) + DP(3,2) + DP(4,2) + DP(5,2) + DP(6,2)
 + DP(7,2) + DP(8,2) + DP(9,2) + DP(10,2) + DP(11,2) = 1
 ST7(3): + DP(1,3) + DP(2,3) + DP(3,3) + DP(4,3) + DP(5,3) + DP(6,3)
 + DP(7,3) + DP(8,3) + DP(9,3) + DP(10,3) + DP(11,3) = 1
 ST8(1,1): + DP(1,1) <= 1
 ST8(1,2): + DP(1,2) <= 1
 ST8(1,3): + DP(1,3) <= 1
 ST8(2,1): + DP(2,1) <= -0
 ST8(2,2): + DP(2,2) <= -0
 ST8(2,3): + DP(2,3) <= -0
 ST8(3,1): + DP(3,1) <= -0
 ST8(3,2): + DP(3,2) <= -0
 ST8(3,3): + DP(3,3) <= -0
 ST8(4,1): + DP(4,1) <= -0
 ST8(4,2): + DP(4,2) <= -0
 ST8(4,3): + DP(4,3) <= -0
 ST8(5,1): + DP(5,1) <= -0
 ST8(5,2): + DP(5,2) <= -0
 ST8(5,3): + DP(5,3) <= -0
 ST8(6,1): + DP(6,1) <= -0
 ST8(6,2): + DP(6,2) <= -0
 ST8(6,3): + DP(6,3) <= -0
 ST8(7,1): + DP(7,1) <= -0
 ST8(7,2): + DP(7,2) <= -0
 ST8(7,3): + DP(7,3) <= -0
 ST8(8,1): + DP(8,1) <= -0
 ST8(8,2): + DP(8,2) <= -0
 ST8(8,3): + DP(8,3) <= -0
 ST8(9,1): + DP(9,1) <= -0
 ST8(9,2): + DP(9,2) <= -0
 ST8(9,3): + DP(9,3) <= -0
 ST8(10,1): + DP(10,1) <= -0
 ST8(10,2): + DP(10,2) <= -0
 ST8(10,3): + DP(10,3) <= -0
 ST8(11,1): + DP(11,1) <= 1
 ST8(11,2): + DP(11,2) <= 1
 ST8(11,3): + DP(11,3) <= 1

Bounds
 0 <= x(1,2,1) <= 1
 0 <= x(1,2,2) <= 1
 0 <= x(1,2,3) <= 1
 0 <= x(1,5,1) <= 1
 0 <= x(1,5,2) <= 1
 0 <= x(1,5,3) <= 1
 0 <= x(1,6,1) <= 1
 0 <= x(1,6,2) <= 1
 0 <= x(1,6,3) <= 1
 0 <= x(1,7,1) <= 1
 0 <= x(1,7,2) <= 1
 0 <= x(1,7,3) <= 1
 0 <= x(1,9,1) <= 1
 0 <= x(1,9,2) <= 1
 0 <= x(1,9,3) <= 1
 0 <= x(1,11,1) <= 1
 0 <= x(1,11,2) <= 1
 0 <= x(1,11,3) <= 1
 0 <= x(2,1,1) <= 1
 0 <= x(2,1,2) <= 1
 0 <= x(2,1,3) <= 1
 0 <= x(2,3,1) <= 1
 0 <= x(2,3,2) <= 1
 0 <= x(2,3,3) <= 1
 0 <= x(2,5,1) <= 1
 0 <= x(2,5,2) <= 1
 0 <= x(2,5,3) <= 1
 0 <= x(2,8,1) <= 1
 0 <= x(2,8,2) <= 1
 0 <= x(2,8,3) <= 1
 0 <= x(3,2,1) <= 1
 0 <= x(3,2,2) <= 1
 0 <= x(3,2,3) <= 1
 0 <= x(3,5,1) <= 1
 0 <= x(3,5,2) <= 1
 0 <= x(3,5,3) <= 1
 0 <= x(3,6,1) <= 1
 0 <= x(3,6,2) <= 1
 0 <= x(3,6,3) <= 1
 0 <= x(3,7,1) <= 1
 0 <= x(3,7,2) <= 1
 0 <= x(3,7,3) <= 1
 0 <= x(3,8,1) <= 1
 0 <= x(3,8,2) <= 1
 0 <= x(3,8,3) <= 1
 0 <= x(4,6,1) <= 1
 0 <= x(4,6,2) <= 1
 0 <= x(4,6,3) <= 1
 0 <= x(4,7,1) <= 1
 0 <= x(4,7,2) <= 1
 0 <= x(4,7,3) <= 1
 0 <= x(4,8,1) <= 1
 0 <= x(4,8,2) <= 1
 0 <= x(4,8,3) <= 1
 0 <= x(4,9,1) <= 1
 0 <= x(4,9,2) <= 1
 0 <= x(4,9,3) <= 1
 0 <= x(4,10,1) <= 1
 0 <= x(4,10,2) <= 1
 0 <= x(4,10,3) <= 1
 0 <= x(5,1,1) <= 1
 0 <= x(5,1,2) <= 1
 0 <= x(5,1,3) <= 1
 0 <= x(5,2,1) <= 1
 0 <= x(5,2,2) <= 1
 0 <= x(5,2,3) <= 1
 0 <= x(5,3,1) <= 1
 0 <= x(5,3,2) <= 1
 0 <= x(5,3,3) <= 1
 0 <= x(5,6,1) <= 1
 0 <= x(5,6,2) <= 1
 0 <= x(5,6,3) <= 1
 0 <= x(5,11,1) <= 1
 0 <= x(5,11,2) <= 1
 0 <= x(5,11,3) <= 1
 0 <= x(6,1,1) <= 1
 0 <= x(6,1,2) <= 1
 0 <= x(6,1,3) <= 1
 0 <= x(6,3,1) <= 1
 0 <= x(6,3,2) <= 1
 0 <= x(6,3,3) <= 1
 0 <= x(6,4,1) <= 1
 0 <= x(6,4,2) <= 1
 0 <= x(6,4,3) <= 1
 0 <= x(6,5,1) <= 1
 0 <= x(6,5,2) <= 1
 0 <= x(6,5,3) <= 1
 0 <= x(6,9,1) <= 1
 0 <= x(6,9,2) <= 1
 0 <= x(6,9,3) <= 1
 0 <= x(7,1,1) <= 1
 0 <= x(7,1,2) <= 1
 0 <= x(7,1,3) <= 1
 0 <= x(7,3,1) <= 1
 0 <= x(7,3,2) <= 1
 0 <= x(7,3,3) <= 1
 0 <= x(7,4,1) <= 1
 0 <= x(7,4,2) <= 1
 0 <= x(7,4,3) <= 1
 0 <= x(7,8,1) <= 1
 0 <= x(7,8,2) <= 1
 0 <= x(7,8,3) <= 1
 0 <= x(7,10,1) <= 1
 0 <= x(7,10,2) <= 1
 0 <= x(7,10,3) <= 1
 0 <= x(8,2,1) <= 1
 0 <= x(8,2,2) <= 1
 0 <= x(8,2,3) <= 1
 0 <= x(8,3,1) <= 1
 0 <= x(8,3,2) <= 1
 0 <= x(8,3,3) <= 1
 0 <= x(8,4,1) <= 1
 0 <= x(8,4,2) <= 1
 0 <= x(8,4,3) <= 1
 0 <= x(8,7,1) <= 1
 0 <= x(8,7,2) <= 1
 0 <= x(8,7,3) <= 1
 0 <= x(9,1,1) <= 1
 0 <= x(9,1,2) <= 1
 0 <= x(9,1,3) <= 1
 0 <= x(9,4,1) <= 1
 0 <= x(9,4,2) <= 1
 0 <= x(9,4,3) <= 1
 0 <= x(9,6,1) <= 1
 0 <= x(9,6,2) <= 1
 0 <= x(9,6,3) <= 1
 0 <= x(9,10,1) <= 1
 0 <= x(9,10,2) <= 1
 0 <= x(9,10,3) <= 1
 0 <= x(9,11,1) <= 1
 0 <= x(9,11,2) <= 1
 0 <= x(9,11,3) <= 1
 0 <= x(10,4,1) <= 1
 0 <= x(10,4,2) <= 1
 0 <= x(10,4,3) <= 1
 0 <= x(10,7,1) <= 1
 0 <= x(10,7,2) <= 1
 0 <= x(10,7,3) <= 1
 0 <= x(10,9,1) <= 1
 0 <= x(10,9,2) <= 1
 0 <= x(10,9,3) <= 1
 0 <= x(10,11,1) <= 1
 0 <= x(10,11,2) <= 1
 0 <= x(10,11,3) <= 1
 0 <= x(11,1,1) <= 1
 0 <= x(11,1,2) <= 1
 0 <= x(11,1,3) <= 1
 0 <= x(11,5,1) <= 1
 0 <= x(11,5,2) <= 1
 0 <= x(11,5,3) <= 1
 0 <= x(11,9,1) <= 1
 0 <= x(11,9,2) <= 1
 0 <= x(11,9,3) <= 1
 0 <= x(11,10,1) <= 1
 0 <= x(11,10,2) <= 1
 0 <= x(11,10,3) <= 1
 0 <= b(1,1) <= 1
 0 <= b(1,2) <= 1
 0 <= b(1,3) <= 1
 0 <= b(2,1) <= 1
 0 <= b(2,2) <= 1
 0 <= b(2,3) <= 1
 0 <= b(3,1) <= 1
 0 <= b(3,2) <= 1
 0 <= b(3,3) <= 1
 0 <= b(4,1) <= 1
 0 <= b(4,2) <= 1
 0 <= b(4,3) <= 1
 0 <= b(5,1) <= 1
 0 <= b(5,2) <= 1
 0 <= b(5,3) <= 1
 0 <= b(6,1) <= 1
 0 <= b(6,2) <= 1
 0 <= b(6,3) <= 1
 0 <= b(7,1) <= 1
 0 <= b(7,2) <= 1
 0 <= b(7,3) <= 1
 0 <= b(8,1) <= 1
 0 <= b(8,2) <= 1
 0 <= b(8,3) <= 1
 0 <= b(9,1) <= 1
 0 <= b(9,2) <= 1
 0 <= b(9,3) <= 1
 0 <= b(10,1) <= 1
 0 <= b(10,2) <= 1
 0 <= b(10,3) <= 1
 0 <= b(11,1) <= 1
 0 <= b(11,2) <= 1
 0 <= b(11,3) <= 1
 L(1) free
 L(2) free
 L(3) free
 Lmax free
 0 <= DP(1,1) <= 1
 0 <= DP(2,1) <= 1
 0 <= DP(3,1) <= 1
 0 <= DP(4,1) <= 1
 0 <= DP(5,1) <= 1
 0 <= DP(6,1) <= 1
 0 <= DP(7,1) <= 1
 0 <= DP(8,1) <= 1
 0 <= DP(9,1) <= 1
 0 <= DP(10,1) <= 1
 0 <= DP(11,1) <= 1
 0 <= DP(1,2) <= 1
 0 <= DP(2,2) <= 1
 0 <= DP(3,2) <= 1
 0 <= DP(4,2) <= 1
 0 <= DP(5,2) <= 1
 0 <= DP(6,2) <= 1
 0 <= DP(7,2) <= 1
 0 <= DP(8,2) <= 1
 0 <= DP(9,2) <= 1
 0 <= DP(10,2) <= 1
 0 <= DP(11,2) <= 1
 0 <= DP(1,3) <= 1
 0 <= DP(2,3) <= 1
 0 <= DP(3,3) <= 1
 0 <= DP(4,3) <= 1
 0 <= DP(5,3) <= 1
 0 <= DP(6,3) <= 1
 0 <= DP(7,3) <= 1
 0 <= DP(8,3) <= 1
 0 <= DP(9,3) <= 1
 0 <= DP(10,3) <= 1
 0 <= DP(11,3) <= 1
 0 <= x_or(1,2,1) <= 1
 0 <= x_or(1,2,2) <= 1
 0 <= x_or(1,2,3) <= 1
 0 <= x_or(1,5,1) <= 1
 0 <= x_or(1,5,2) <= 1
 0 <= x_or(1,5,3) <= 1
 0 <= x_or(1,6,1) <= 1
 0 <= x_or(1,6,2) <= 1
 0 <= x_or(1,6,3) <= 1
 0 <= x_or(1,7,1) <= 1
 0 <= x_or(1,7,2) <= 1
 0 <= x_or(1,7,3) <= 1
 0 <= x_or(1,9,1) <= 1
 0 <= x_or(1,9,2) <= 1
 0 <= x_or(1,9,3) <= 1
 0 <= x_or(1,11,1) <= 1
 0 <= x_or(1,11,2) <= 1
 0 <= x_or(1,11,3) <= 1
 0 <= x_or(2,1,1) <= 1
 0 <= x_or(2,1,2) <= 1
 0 <= x_or(2,1,3) <= 1
 0 <= x_or(2,3,1) <= 1
 0 <= x_or(2,3,2) <= 1
 0 <= x_or(2,3,3) <= 1
 0 <= x_or(2,5,1) <= 1
 0 <= x_or(2,5,2) <= 1
 0 <= x_or(2,5,3) <= 1
 0 <= x_or(2,8,1) <= 1
 0 <= x_or(2,8,2) <= 1
 0 <= x_or(2,8,3) <= 1
 0 <= x_or(3,2,1) <= 1
 0 <= x_or(3,2,2) <= 1
 0 <= x_or(3,2,3) <= 1
 0 <= x_or(3,5,1) <= 1
 0 <= x_or(3,5,2) <= 1
 0 <= x_or(3,5,3) <= 1
 0 <= x_or(3,6,1) <= 1
 0 <= x_or(3,6,2) <= 1
 0 <= x_or(3,6,3) <= 1
 0 <= x_or(3,7,1) <= 1
 0 <= x_or(3,7,2) <= 1
 0 <= x_or(3,7,3) <= 1
 0 <= x_or(3,8,1) <= 1
 0 <= x_or(3,8,2) <= 1
 0 <= x_or(3,8,3) <= 1
 0 <= x_or(4,6,1) <= 1
 0 <= x_or(4,6,2) <= 1
 0 <= x_or(4,6,3) <= 1
 0 <= x_or(4,7,1) <= 1
 0 <= x_or(4,7,2) <= 1
 0 <= x_or(4,7,3) <= 1
 0 <= x_or(4,8,1) <= 1
 0 <= x_or(4,8,2) <= 1
 0 <= x_or(4,8,3) <= 1
 0 <= x_or(4,9,1) <= 1
 0 <= x_or(4,9,2) <= 1
 0 <= x_or(4,9,3) <= 1
 0 <= x_or(4,10,1) <= 1
 0 <= x_or(4,10,2) <= 1
 0 <= x_or(4,10,3) <= 1
 0 <= x_or(5,1,1) <= 1
 0 <= x_or(5,1,2) <= 1
 0 <= x_or(5,1,3) <= 1
 0 <= x_or(5,2,1) <= 1
 0 <= x_or(5,2,2) <= 1
 0 <= x_or(5,2,3) <= 1
 0 <= x_or(5,3,1) <= 1
 0 <= x_or(5,3,2) <= 1
 0 <= x_or(5,3,3) <= 1
 0 <= x_or(5,6,1) <= 1
 0 <= x_or(5,6,2) <= 1
 0 <= x_or(5,6,3) <= 1
 0 <= x_or(5,11,1) <= 1
 0 <= x_or(5,11,2) <= 1
 0 <= x_or(5,11,3) <= 1
 0 <= x_or(6,1,1) <= 1
 0 <= x_or(6,1,2) <= 1
 0 <= x_or(6,1,3) <= 1
 0 <= x_or(6,3,1) <= 1
 0 <= x_or(6,3,2) <= 1
 0 <= x_or(6,3,3) <= 1
 0 <= x_or(6,4,1) <= 1
 0 <= x_or(6,4,2) <= 1
 0 <= x_or(6,4,3) <= 1
 0 <= x_or(6,5,1) <= 1
 0 <= x_or(6,5,2) <= 1
 0 <= x_or(6,5,3) <= 1
 0 <= x_or(6,9,1) <= 1
 0 <= x_or(6,9,2) <= 1
 0 <= x_or(6,9,3) <= 1
 0 <= x_or(7,1,1) <= 1
 0 <= x_or(7,1,2) <= 1
 0 <= x_or(7,1,3) <= 1
 0 <= x_or(7,3,1) <= 1
 0 <= x_or(7,3,2) <= 1
 0 <= x_or(7,3,3) <= 1
 0 <= x_or(7,4,1) <= 1
 0 <= x_or(7,4,2) <= 1
 0 <= x_or(7,4,3) <= 1
 0 <= x_or(7,8,1) <= 1
 0 <= x_or(7,8,2) <= 1
 0 <= x_or(7,8,3) <= 1
 0 <= x_or(7,10,1) <= 1
 0 <= x_or(7,10,2) <= 1
 0 <= x_or(7,10,3) <= 1
 0 <= x_or(8,2,1) <= 1
 0 <= x_or(8,2,2) <= 1
 0 <= x_or(8,2,3) <= 1
 0 <= x_or(8,3,1) <= 1
 0 <= x_or(8,3,2) <= 1
 0 <= x_or(8,3,3) <= 1
 0 <= x_or(8,4,1) <= 1
 0 <= x_or(8,4,2) <= 1
 0 <= x_or(8,4,3) <= 1
 0 <= x_or(8,7,1) <= 1
 0 <= x_or(8,7,2) <= 1
 0 <= x_or(8,7,3) <= 1
 0 <= x_or(9,1,1) <= 1
 0 <= x_or(9,1,2) <= 1
 0 <= x_or(9,1,3) <= 1
 0 <= x_or(9,4,1) <= 1
 0 <= x_or(9,4,2) <= 1
 0 <= x_or(9,4,3) <= 1
 0 <= x_or(9,6,1) <= 1
 0 <= x_or(9,6,2) <= 1
 0 <= x_or(9,6,3) <= 1
 0 <= x_or(9,10,1) <= 1
 0 <= x_or(9,10,2) <= 1
 0 <= x_or(9,10,3) <= 1
 0 <= x_or(9,11,1) <= 1
 0 <= x_or(9,11,2) <= 1
 0 <= x_or(9,11,3) <= 1
 0 <= x_or(10,4,1) <= 1
 0 <= x_or(10,4,2) <= 1
 0 <= x_or(10,4,3) <= 1
 0 <= x_or(10,7,1) <= 1
 0 <= x_or(10,7,2) <= 1
 0 <= x_or(10,7,3) <= 1
 0 <= x_or(10,9,1) <= 1
 0 <= x_or(10,9,2) <= 1
 0 <= x_or(10,9,3) <= 1
 0 <= x_or(10,11,1) <= 1
 0 <= x_or(10,11,2) <= 1
 0 <= x_or(10,11,3) <= 1
 0 <= x_or(11,1,1) <= 1
 0 <= x_or(11,1,2) <= 1
 0 <= x_or(11,1,3) <= 1
 0 <= x_or(11,5,1) <= 1
 0 <= x_or(11,5,2) <= 1
 0 <= x_or(11,5,3) <= 1
 0 <= x_or(11,9,1) <= 1
 0 <= x_or(11,9,2) <= 1
 0 <= x_or(11,9,3) <= 1
 0 <= x_or(11,10,1) <= 1
 0 <= x_or(11,10,2) <= 1
 0 <= x_or(11,10,3) <= 1

Generals
 x(1,2,1)
 x(1,2,2)
 x(1,2,3)
 x(1,5,1)
 x(1,5,2)
 x(1,5,3)
 x(1,6,1)
 x(1,6,2)
 x(1,6,3)
 x(1,7,1)
 x(1,7,2)
 x(1,7,3)
 x(1,9,1)
 x(1,9,2)
 x(1,9,3)
 x(1,11,1)
 x(1,11,2)
 x(1,11,3)
 x(2,1,1)
 x(2,1,2)
 x(2,1,3)
 x(2,3,1)
 x(2,3,2)
 x(2,3,3)
 x(2,5,1)
 x(2,5,2)
 x(2,5,3)
 x(2,8,1)
 x(2,8,2)
 x(2,8,3)
 x(3,2,1)
 x(3,2,2)
 x(3,2,3)
 x(3,5,1)
 x(3,5,2)
 x(3,5,3)
 x(3,6,1)
 x(3,6,2)
 x(3,6,3)
 x(3,7,1)
 x(3,7,2)
 x(3,7,3)
 x(3,8,1)
 x(3,8,2)
 x(3,8,3)
 x(4,6,1)
 x(4,6,2)
 x(4,6,3)
 x(4,7,1)
 x(4,7,2)
 x(4,7,3)
 x(4,8,1)
 x(4,8,2)
 x(4,8,3)
 x(4,9,1)
 x(4,9,2)
 x(4,9,3)
 x(4,10,1)
 x(4,10,2)
 x(4,10,3)
 x(5,1,1)
 x(5,1,2)
 x(5,1,3)
 x(5,2,1)
 x(5,2,2)
 x(5,2,3)
 x(5,3,1)
 x(5,3,2)
 x(5,3,3)
 x(5,6,1)
 x(5,6,2)
 x(5,6,3)
 x(5,11,1)
 x(5,11,2)
 x(5,11,3)
 x(6,1,1)
 x(6,1,2)
 x(6,1,3)
 x(6,3,1)
 x(6,3,2)
 x(6,3,3)
 x(6,4,1)
 x(6,4,2)
 x(6,4,3)
 x(6,5,1)
 x(6,5,2)
 x(6,5,3)
 x(6,9,1)
 x(6,9,2)
 x(6,9,3)
 x(7,1,1)
 x(7,1,2)
 x(7,1,3)
 x(7,3,1)
 x(7,3,2)
 x(7,3,3)
 x(7,4,1)
 x(7,4,2)
 x(7,4,3)
 x(7,8,1)
 x(7,8,2)
 x(7,8,3)
 x(7,10,1)
 x(7,10,2)
 x(7,10,3)
 x(8,2,1)
 x(8,2,2)
 x(8,2,3)
 x(8,3,1)
 x(8,3,2)
 x(8,3,3)
 x(8,4,1)
 x(8,4,2)
 x(8,4,3)
 x(8,7,1)
 x(8,7,2)
 x(8,7,3)
 x(9,1,1)
 x(9,1,2)
 x(9,1,3)
 x(9,4,1)
 x(9,4,2)
 x(9,4,3)
 x(9,6,1)
 x(9,6,2)
 x(9,6,3)
 x(9,10,1)
 x(9,10,2)
 x(9,10,3)
 x(9,11,1)
 x(9,11,2)
 x(9,11,3)
 x(10,4,1)
 x(10,4,2)
 x(10,4,3)
 x(10,7,1)
 x(10,7,2)
 x(10,7,3)
 x(10,9,1)
 x(10,9,2)
 x(10,9,3)
 x(10,11,1)
 x(10,11,2)
 x(10,11,3)
 x(11,1,1)
 x(11,1,2)
 x(11,1,3)
 x(11,5,1)
 x(11,5,2)
 x(11,5,3)
 x(11,9,1)
 x(11,9,2)
 x(11,9,3)
 x(11,10,1)
 x(11,10,2)
 x(11,10,3)
 b(1,1)
 b(1,2)
 b(1,3)
 b(2,1)
 b(2,2)
 b(2,3)
 b(3,1)
 b(3,2)
 b(3,3)
 b(4,1)
 b(4,2)
 b(4,3)
 b(5,1)
 b(5,2)
 b(5,3)
 b(6,1)
 b(6,2)
 b(6,3)
 b(7,1)
 b(7,2)
 b(7,3)
 b(8,1)
 b(8,2)
 b(8,3)
 b(9,1)
 b(9,2)
 b(9,3)
 b(10,1)
 b(10,2)
 b(10,3)
 b(11,1)
 b(11,2)
 b(11,3)
 DP(1,1)
 DP(2,1)
 DP(3,1)
 DP(4,1)
 DP(5,1)
 DP(6,1)
 DP(7,1)
 DP(8,1)
 DP(9,1)
 DP(10,1)
 DP(11,1)
 DP(1,2)
 DP(2,2)
 DP(3,2)
 DP(4,2)
 DP(5,2)
 DP(6,2)
 DP(7,2)
 DP(8,2)
 DP(9,2)
 DP(10,2)
 DP(11,2)
 DP(1,3)
 DP(2,3)
 DP(3,3)
 DP(4,3)
 DP(5,3)
 DP(6,3)
 DP(7,3)
 DP(8,3)
 DP(9,3)
 DP(10,3)
 DP(11,3)
 x_or(1,2,1)
 x_or(1,2,2)
 x_or(1,2,3)
 x_or(1,5,1)
 x_or(1,5,2)
 x_or(1,5,3)
 x_or(1,6,1)
 x_or(1,6,2)
 x_or(1,6,3)
 x_or(1,7,1)
 x_or(1,7,2)
 x_or(1,7,3)
 x_or(1,9,1)
 x_or(1,9,2)
 x_or(1,9,3)
 x_or(1,11,1)
 x_or(1,11,2)
 x_or(1,11,3)
 x_or(2,1,1)
 x_or(2,1,2)
 x_or(2,1,3)
 x_or(2,3,1)
 x_or(2,3,2)
 x_or(2,3,3)
 x_or(2,5,1)
 x_or(2,5,2)
 x_or(2,5,3)
 x_or(2,8,1)
 x_or(2,8,2)
 x_or(2,8,3)
 x_or(3,2,1)
 x_or(3,2,2)
 x_or(3,2,3)
 x_or(3,5,1)
 x_or(3,5,2)
 x_or(3,5,3)
 x_or(3,6,1)
 x_or(3,6,2)
 x_or(3,6,3)
 x_or(3,7,1)
 x_or(3,7,2)
 x_or(3,7,3)
 x_or(3,8,1)
 x_or(3,8,2)
 x_or(3,8,3)
 x_or(4,6,1)
 x_or(4,6,2)
 x_or(4,6,3)
 x_or(4,7,1)
 x_or(4,7,2)
 x_or(4,7,3)
 x_or(4,8,1)
 x_or(4,8,2)
 x_or(4,8,3)
 x_or(4,9,1)
 x_or(4,9,2)
 x_or(4,9,3)
 x_or(4,10,1)
 x_or(4,10,2)
 x_or(4,10,3)
 x_or(5,1,1)
 x_or(5,1,2)
 x_or(5,1,3)
 x_or(5,2,1)
 x_or(5,2,2)
 x_or(5,2,3)
 x_or(5,3,1)
 x_or(5,3,2)
 x_or(5,3,3)
 x_or(5,6,1)
 x_or(5,6,2)
 x_or(5,6,3)
 x_or(5,11,1)
 x_or(5,11,2)
 x_or(5,11,3)
 x_or(6,1,1)
 x_or(6,1,2)
 x_or(6,1,3)
 x_or(6,3,1)
 x_or(6,3,2)
 x_or(6,3,3)
 x_or(6,4,1)
 x_or(6,4,2)
 x_or(6,4,3)
 x_or(6,5,1)
 x_or(6,5,2)
 x_or(6,5,3)
 x_or(6,9,1)
 x_or(6,9,2)
 x_or(6,9,3)
 x_or(7,1,1)
 x_or(7,1,2)
 x_or(7,1,3)
 x_or(7,3,1)
 x_or(7,3,2)
 x_or(7,3,3)
 x_or(7,4,1)
 x_or(7,4,2)
 x_or(7,4,3)
 x_or(7,8,1)
 x_or(7,8,2)
 x_or(7,8,3)
 x_or(7,10,1)
 x_or(7,10,2)
 x_or(7,10,3)
 x_or(8,2,1)
 x_or(8,2,2)
 x_or(8,2,3)
 x_or(8,3,1)
 x_or(8,3,2)
 x_or(8,3,3)
 x_or(8,4,1)
 x_or(8,4,2)
 x_or(8,4,3)
 x_or(8,7,1)
 x_or(8,7,2)
 x_or(8,7,3)
 x_or(9,1,1)
 x_or(9,1,2)
 x_or(9,1,3)
 x_or(9,4,1)
 x_or(9,4,2)
 x_or(9,4,3)
 x_or(9,6,1)
 x_or(9,6,2)
 x_or(9,6,3)
 x_or(9,10,1)
 x_or(9,10,2)
 x_or(9,10,3)
 x_or(9,11,1)
 x_or(9,11,2)
 x_or(9,11,3)
 x_or(10,4,1)
 x_or(10,4,2)
 x_or(10,4,3)
 x_or(10,7,1)
 x_or(10,7,2)
 x_or(10,7,3)
 x_or(10,9,1)
 x_or(10,9,2)
 x_or(10,9,3)
 x_or(10,11,1)
 x_or(10,11,2)
 x_or(10,11,3)
 x_or(11,1,1)
 x_or(11,1,2)
 x_or(11,1,3)
 x_or(11,5,1)
 x_or(11,5,2)
 x_or(11,5,3)
 x_or(11,9,1)
 x_or(11,9,2)
 x_or(11,9,3)
 x_or(11,10,1)
 x_or(11,10,2)
 x_or(11,10,3)

End
